TEVC 5-layer moire structure

26450 atoms
5 atom types

0.000000 128.110754 xlo xhi
0.000000 110.947168 ylo yhi
-20.000000 33.400000 zlo zhi
64.055377 0.000000 0.000000 xy xz yz

Masses

1 12.011  # C (layer 1)
2 12.011  # C (layer 2)
3 12.011  # C (layer 3)
4 12.011  # C (layer 4)
5 12.011  # C (layer 5)

Atoms

1 1 -75.076898 -15.276379 0.000000
2 1 -74.660183 -15.982412 0.000000
3 1 -73.867645 -13.134673 0.000000
4 1 -73.450930 -13.840705 0.000000
5 1 -72.658392 -10.992966 0.000000
6 1 -72.241677 -11.698999 0.000000
7 1 -71.449139 -8.851260 0.000000
8 1 -71.032424 -9.557292 0.000000
9 1 -70.239886 -6.709553 0.000000
10 1 -69.823170 -7.415586 0.000000
11 1 -69.030632 -4.567847 0.000000
12 1 -68.613917 -5.273879 0.000000
13 1 -67.821379 -2.426140 0.000000
14 1 -67.404664 -3.132173 0.000000
15 1 -66.612126 -0.284434 0.000000
16 1 -66.195411 -0.990466 0.000000
17 1 -65.402873 1.857273 0.000000
18 1 -64.986158 1.151240 0.000000
19 1 -64.193620 3.998979 0.000000
20 1 -63.776904 3.292947 0.000000
21 1 -62.984366 6.140686 0.000000
22 1 -62.567651 5.434653 0.000000
23 1 -61.775113 8.282392 0.000000
24 1 -61.358398 7.576360 0.000000
25 1 -60.565860 10.424099 0.000000
26 1 -60.149145 9.718066 0.000000
27 1 -59.356607 12.565805 0.000000
28 1 -58.939892 11.859773 0.000000
29 1 -58.147354 14.707512 0.000000
30 1 -57.730638 14.001479 0.000000
31 1 -56.938100 16.849218 0.000000
32 1 -56.521385 16.143186 0.000000
33 1 -55.728847 18.990925 0.000000
34 1 -55.312132 18.284892 0.000000
35 1 -54.519594 21.132631 0.000000
36 1 -54.102879 20.426599 0.000000
37 1 -53.310341 23.274338 0.000000
38 1 -52.893626 22.568305 0.000000
39 1 -52.101088 25.416044 0.000000
40 1 -51.684372 24.710012 0.000000
41 1 -50.891834 27.557751 0.000000
42 1 -50.475119 26.851718 0.000000
43 1 -49.682581 29.699457 0.000000
44 1 -49.265866 28.993425 0.000000
45 1 -48.473328 31.841164 0.000000
46 1 -48.056613 31.135131 0.000000
47 1 -47.264075 33.982870 0.000000
48 1 -46.847360 33.276838 0.000000
49 1 -46.054822 36.124577 0.000000
50 1 -45.638106 35.418544 0.000000
51 1 -44.845568 38.266283 0.000000
52 1 -44.428853 37.560251 0.000000
53 1 -43.636315 40.407990 0.000000
54 1 -43.219600 39.701957 0.000000
55 1 -42.427062 42.549696 0.000000
56 1 -42.010347 41.843664 0.000000
57 1 -41.217809 44.691403 0.000000
58 1 -40.801094 43.985370 0.000000
59 1 -40.008556 46.833109 0.000000
60 1 -39.591840 46.127077 0.000000
61 1 -38.799302 48.974816 0.000000
62 1 -38.382587 48.268783 0.000000
63 1 -37.590049 51.116522 0.000000
64 1 -37.173334 50.410490 0.000000
65 1 -36.380796 53.258229 0.000000
66 1 -35.964081 52.552196 0.000000
67 1 -35.171543 55.399935 0.000000
68 1 -34.754828 54.693903 0.000000
69 1 -33.962290 57.541642 0.000000
70 1 -33.545574 56.835609 0.000000
71 1 -73.826753 -17.394476 0.000000
72 1 -73.410038 -18.100509 0.000000
73 1 -72.617500 -15.252770 0.000000
74 1 -72.200784 -15.958802 0.000000
75 1 -71.408246 -13.111063 0.000000
76 1 -70.991531 -13.817096 0.000000
77 1 -70.198993 -10.969357 0.000000
78 1 -69.782278 -11.675389 0.000000
79 1 -68.989740 -8.827651 0.000000
80 1 -68.573025 -9.533683 0.000000
81 1 -67.780487 -6.685944 0.000000
82 1 -67.363772 -7.391976 0.000000
83 1 -66.571234 -4.544238 0.000000
84 1 -66.154518 -5.250270 0.000000
85 1 -65.361980 -2.402531 0.000000
86 1 -64.945265 -3.108563 0.000000
87 1 -64.152727 -0.260825 0.000000
88 1 -63.736012 -0.966857 0.000000
89 1 -62.943474 1.880882 0.000000
90 1 -62.526759 1.174850 0.000000
91 1 -61.734221 4.022588 0.000000
92 1 -61.317506 3.316556 0.000000
93 1 -60.524968 6.164295 0.000000
94 1 -60.108252 5.458263 0.000000
95 1 -59.315714 8.306001 0.000000
96 1 -58.898999 7.599969 0.000000
97 1 -58.106461 10.447708 0.000000
98 1 -57.689746 9.741676 0.000000
99 1 -56.897208 12.589414 0.000000
100 1 -56.480493 11.883382 0.000000
101 1 -55.687955 14.731121 0.000000
102 1 -55.271240 14.025089 0.000000
103 1 -54.478702 16.872827 0.000000
104 1 -54.061986 16.166795 0.000000
105 1 -53.269448 19.014534 0.000000
106 1 -52.852733 18.308502 0.000000
107 1 -52.060195 21.156240 0.000000
108 1 -51.643480 20.450208 0.000000
109 1 -50.850942 23.297947 0.000000
110 1 -50.434227 22.591914 0.000000
111 1 -49.641689 25.439653 0.000000
112 1 -49.224974 24.733621 0.000000
113 1 -48.432436 27.581360 0.000000
114 1 -48.015720 26.875327 0.000000
115 1 -47.223182 29.723066 0.000000
116 1 -46.806467 29.017034 0.000000
117 1 -46.013929 31.864773 0.000000
118 1 -45.597214 31.158740 0.000000
119 1 -44.804676 34.006479 0.000000
120 1 -44.387961 33.300447 0.000000
121 1 -43.595423 36.148186 0.000000
122 1 -43.178708 35.442153 0.000000
123 1 -42.386170 38.289892 0.000000
124 1 -41.969454 37.583860 0.000000
125 1 -41.176916 40.431599 0.000000
126 1 -40.760201 39.725566 0.000000
127 1 -39.967663 42.573305 0.000000
128 1 -39.550948 41.867273 0.000000
129 1 -38.758410 44.715012 0.000000
130 1 -38.341695 44.008979 0.000000
131 1 -37.549157 46.856718 0.000000
132 1 -37.132442 46.150686 0.000000
133 1 -36.339904 48.998425 0.000000
134 1 -35.923188 48.292392 0.000000
135 1 -35.130650 51.140131 0.000000
136 1 -34.713935 50.434099 0.000000
137 1 -33.921397 53.281838 0.000000
138 1 -33.504682 52.575805 0.000000
139 1 -32.712144 55.423544 0.000000
140 1 -32.295429 54.717512 0.000000
141 1 -31.502891 57.565251 0.000000
142 1 -31.086176 56.859218 0.000000
143 1 -73.369145 -22.360313 0.000000
144 1 -72.576607 -19.512574 0.000000
145 1 -72.159892 -20.218606 0.000000
146 1 -71.367354 -17.370867 0.000000
147 1 -70.950639 -18.076900 0.000000
148 1 -70.158101 -15.229161 0.000000
149 1 -69.741386 -15.935193 0.000000
150 1 -68.948848 -13.087454 0.000000
151 1 -68.532132 -13.793487 0.000000
152 1 -67.739594 -10.945748 0.000000
153 1 -67.322879 -11.651780 0.000000
154 1 -66.530341 -8.804041 0.000000
155 1 -66.113626 -9.510074 0.000000
156 1 -65.321088 -6.662335 0.000000
157 1 -64.904373 -7.368367 0.000000
158 1 -64.111835 -4.520628 0.000000
159 1 -63.695120 -5.226661 0.000000
160 1 -62.902582 -2.378922 0.000000
161 1 -62.485866 -3.084954 0.000000
162 1 -61.693328 -0.237215 0.000000
163 1 -61.276613 -0.943248 0.000000
164 1 -60.484075 1.904491 0.000000
165 1 -60.067360 1.198459 0.000000
166 1 -59.274822 4.046198 0.000000
167 1 -58.858107 3.340165 0.000000
168 1 -58.065569 6.187904 0.000000
169 1 -57.648854 5.481872 0.000000
170 1 -56.856316 8.329611 0.000000
171 1 -56.439600 7.623578 0.000000
172 1 -55.647062 10.471317 0.000000
173 1 -55.230347 9.765285 0.000000
174 1 -54.437809 12.613024 0.000000
175 1 -54.021094 11.906991 0.000000
176 1 -53.228556 14.754730 0.000000
177 1 -52.811841 14.048698 0.000000
178 1 -52.019303 16.896437 0.000000
179 1 -51.602588 16.190404 0.000000
180 1 -50.810050 19.038143 0.000000
181 1 -50.393334 18.332111 0.000000
182 1 -49.600796 21.179850 0.000000
183 1 -49.184081 20.473817 0.000000
184 1 -48.391543 23.321556 0.000000
185 1 -47.974828 22.615524 0.000000
186 1 -47.182290 25.463263 0.000000
187 1 -46.765575 24.757230 0.000000
188 1 -45.973037 27.604969 0.000000
189 1 -45.556322 26.898937 0.000000
190 1 -44.763784 29.746676 0.000000
191 1 -44.347068 29.040643 0.000000
192 1 -43.554530 31.888382 0.000000
193 1 -43.137815 31.182350 0.000000
194 1 -42.345277 34.030089 0.000000
195 1 -41.928562 33.324056 0.000000
196 1 -41.136024 36.171795 0.000000
197 1 -40.719309 35.465763 0.000000
198 1 -39.926771 38.313502 0.000000
199 1 -39.510056 37.607469 0.000000
200 1 -38.717518 40.455208 0.000000
201 1 -38.300802 39.749176 0.000000
202 1 -37.508264 42.596915 0.000000
203 1 -37.091549 41.890882 0.000000
204 1 -36.299011 44.738621 0.000000
205 1 -35.882296 44.032589 0.000000
206 1 -35.089758 46.880328 0.000000
207 1 -34.673043 46.174295 0.000000
208 1 -33.880505 49.022034 0.000000
209 1 -33.463790 48.316002 0.000000
210 1 -32.671252 51.163741 0.000000
211 1 -32.254536 50.457708 0.000000
212 1 -31.461998 53.305447 0.000000
213 1 -31.045283 52.599415 0.000000
214 1 -30.252745 55.447154 0.000000
215 1 -29.836030 54.741121 0.000000
216 1 -29.043492 57.588860 0.000000
217 1 -28.626777 56.882828 0.000000
218 1 -72.535715 -23.772377 0.000000
219 1 -72.118999 -24.478410 0.000000
220 1 -71.326461 -21.630671 0.000000
221 1 -70.909746 -22.336703 0.000000
222 1 -70.117208 -19.488964 0.000000
223 1 -69.700493 -20.194997 0.000000
224 1 -68.907955 -17.347258 0.000000
225 1 -68.491240 -18.053290 0.000000
226 1 -67.698702 -15.205551 0.000000
227 1 -67.281987 -15.911584 0.000000
228 1 -66.489449 -13.063845 0.000000
229 1 -66.072733 -13.769877 0.000000
230 1 -65.280195 -10.922138 0.000000
231 1 -64.863480 -11.628171 0.000000
232 1 -64.070942 -8.780432 0.000000
233 1 -63.654227 -9.486464 0.000000
234 1 -62.861689 -6.638725 0.000000
235 1 -62.444974 -7.344758 0.000000
236 1 -61.652436 -4.497019 0.000000
237 1 -61.235721 -5.203051 0.000000
238 1 -60.443183 -2.355313 0.000000
239 1 -60.026468 -3.061345 0.000000
240 1 -59.233930 -0.213606 0.000000
241 1 -58.817214 -0.919638 0.000000
242 1 -58.024676 1.928100 0.000000
243 1 -57.607961 1.222068 0.000000
244 1 -56.815423 4.069807 0.000000
245 1 -56.398708 3.363775 0.000000
246 1 -55.606170 6.211513 0.000000
247 1 -55.189455 5.505481 0.000000
248 1 -54.396917 8.353220 0.000000
249 1 -53.980202 7.647188 0.000000
250 1 -53.187664 10.494926 0.000000
251 1 -52.770948 9.788894 0.000000
252 1 -51.978410 12.636633 0.000000
253 1 -51.561695 11.930601 0.000000
254 1 -50.769157 14.778339 0.000000
255 1 -50.352442 14.072307 0.000000
256 1 -49.559904 16.920046 0.000000
257 1 -49.143189 16.214014 0.000000
258 1 -48.350651 19.061752 0.000000
259 1 -47.933936 18.355720 0.000000
260 1 -47.141398 21.203459 0.000000
261 1 -46.724682 20.497427 0.000000
262 1 -45.932144 23.345165 0.000000
263 1 -45.515429 22.639133 0.000000
264 1 -44.722891 25.486872 0.000000
265 1 -44.306176 24.780840 0.000000
266 1 -43.513638 27.628578 0.000000
267 1 -43.096923 26.922546 0.000000
268 1 -42.304385 29.770285 0.000000
269 1 -41.887670 29.064252 0.000000
270 1 -41.095132 31.911991 0.000000
271 1 -40.678416 31.205959 0.000000
272 1 -39.885878 34.053698 0.000000
273 1 -39.469163 33.347665 0.000000
274 1 -38.676625 36.195404 0.000000
275 1 -38.259910 35.489372 0.000000
276 1 -37.467372 38.337111 0.000000
277 1 -37.050657 37.631078 0.000000
278 1 -36.258119 40.478817 0.000000
279 1 -35.841404 39.772785 0.000000
280 1 -35.048866 42.620524 0.000000
281 1 -34.632150 41.914491 0.000000
282 1 -33.839612 44.762230 0.000000
283 1 -33.422897 44.056198 0.000000
284 1 -32.630359 46.903937 0.000000
285 1 -32.213644 46.197904 0.000000
286 1 -31.421106 49.045643 0.000000
287 1 -31.004391 48.339611 0.000000
288 1 -30.211853 51.187350 0.000000
289 1 -29.795138 50.481317 0.000000
290 1 -29.002600 53.329056 0.000000
291 1 -28.585884 52.623024 0.000000
292 1 -27.793346 55.470763 0.000000
293 1 -27.376631 54.764730 0.000000
294 1 -26.584093 57.612469 0.000000
295 1 -26.167378 56.906437 0.000000
296 1 -71.285569 -25.890475 0.000000
297 1 -70.868854 -26.596507 0.000000
298 1 -70.076316 -23.748768 0.000000
299 1 -69.659601 -24.454801 0.000000
300 1 -68.867063 -21.607062 0.000000
301 1 -68.450347 -22.313094 0.000000
302 1 -67.657809 -19.465355 0.000000
303 1 -67.241094 -20.171388 0.000000
304 1 -66.448556 -17.323649 0.000000
305 1 -66.031841 -18.029681 0.000000
306 1 -65.239303 -15.181942 0.000000
307 1 -64.822588 -15.887975 0.000000
308 1 -64.030050 -13.040236 0.000000
309 1 -63.613335 -13.746268 0.000000
310 1 -62.820797 -10.898529 0.000000
311 1 -62.404081 -11.604562 0.000000
312 1 -61.611543 -8.756823 0.000000
313 1 -61.194828 -9.462855 0.000000
314 1 -60.402290 -6.615116 0.000000
315 1 -59.985575 -7.321149 0.000000
316 1 -59.193037 -4.473410 0.000000
317 1 -58.776322 -5.179442 0.000000
318 1 -57.983784 -2.331703 0.000000
319 1 -57.567069 -3.037736 0.000000
320 1 -56.774531 -0.189997 0.000000
321 1 -56.357815 -0.896029 0.000000
322 1 -55.565277 1.951710 0.000000
323 1 -55.148562 1.245677 0.000000
324 1 -54.356024 4.093416 0.000000
325 1 -53.939309 3.387384 0.000000
326 1 -53.146771 6.235123 0.000000
327 1 -52.730056 5.529090 0.000000
328 1 -51.937518 8.376829 0.000000
329 1 -51.520803 7.670797 0.000000
330 1 -50.728265 10.518536 0.000000
331 1 -50.311549 9.812503 0.000000
332 1 -49.519012 12.660242 0.000000
333 1 -49.102296 11.954210 0.000000
334 1 -48.309758 14.801949 0.000000
335 1 -47.893043 14.095916 0.000000
336 1 -47.100505 16.943655 0.000000
337 1 -46.683790 16.237623 0.000000
338 1 -45.891252 19.085362 0.000000
339 1 -45.474537 18.379329 0.000000
340 1 -44.681999 21.227068 0.000000
341 1 -44.265284 20.521036 0.000000
342 1 -43.472746 23.368775 0.000000
343 1 -43.056030 22.662742 0.000000
344 1 -42.263492 25.510481 0.000000
345 1 -41.846777 24.804449 0.000000
346 1 -41.054239 27.652188 0.000000
347 1 -40.637524 26.946155 0.000000
348 1 -39.844986 29.793894 0.000000
349 1 -39.428271 29.087862 0.000000
350 1 -38.635733 31.935601 0.000000
351 1 -38.219018 31.229568 0.000000
352 1 -37.426480 34.077307 0.000000
353 1 -37.009764 33.371275 0.000000
354 1 -36.217226 36.219014 0.000000
355 1 -35.800511 35.512981 0.000000
356 1 -35.007973 38.360720 0.000000
357 1 -34.591258 37.654688 0.000000
358 1 -33.798720 40.502427 0.000000
359 1 -33.382005 39.796394 0.000000
360 1 -32.589467 42.644133 0.000000
361 1 -32.172752 41.938101 0.000000
362 1 -31.380214 44.785840 0.000000
363 1 -30.963498 44.079807 0.000000
364 1 -30.170960 46.927546 0.000000
365 1 -29.754245 46.221514 0.000000
366 1 -28.961707 49.069253 0.000000
367 1 -28.544992 48.363220 0.000000
368 1 -27.752454 51.210959 0.000000
369 1 -27.335739 50.504927 0.000000
370 1 -26.543201 53.352666 0.000000
371 1 -26.126486 52.646633 0.000000
372 1 -25.333948 55.494372 0.000000
373 1 -24.917232 54.788340 0.000000
374 1 -24.124694 57.636079 0.000000
375 1 -23.707979 56.930046 0.000000
376 1 -70.035423 -28.008572 0.000000
377 1 -69.618708 -28.714604 0.000000
378 1 -68.826170 -25.866865 0.000000
379 1 -68.409455 -26.572898 0.000000
380 1 -67.616917 -23.725159 0.000000
381 1 -67.200202 -24.431191 0.000000
382 1 -66.407664 -21.583452 0.000000
383 1 -65.990949 -22.289485 0.000000
384 1 -65.198411 -19.441746 0.000000
385 1 -64.781695 -20.147778 0.000000
386 1 -63.989157 -17.300039 0.000000
387 1 -63.572442 -18.006072 0.000000
388 1 -62.779904 -15.158333 0.000000
389 1 -62.363189 -15.864365 0.000000
390 1 -61.570651 -13.016626 0.000000
391 1 -61.153936 -13.722659 0.000000
392 1 -60.361398 -10.874920 0.000000
393 1 -59.944683 -11.580952 0.000000
394 1 -59.152145 -8.733213 0.000000
395 1 -58.735429 -9.439246 0.000000
396 1 -57.942891 -6.591507 0.000000
397 1 -57.526176 -7.297539 0.000000
398 1 -56.733638 -4.449800 0.000000
399 1 -56.316923 -5.155833 0.000000
400 1 -55.524385 -2.308094 0.000000
401 1 -55.107670 -3.014126 0.000000
402 1 -54.315132 -0.166387 0.000000
403 1 -53.898417 -0.872420 0.000000
404 1 -53.105879 1.975319 0.000000
405 1 -52.689163 1.269287 0.000000
406 1 -51.896625 4.117025 0.000000
407 1 -51.479910 3.410993 0.000000
408 1 -50.687372 6.258732 0.000000
409 1 -50.270657 5.552700 0.000000
410 1 -49.478119 8.400438 0.000000
411 1 -49.061404 7.694406 0.000000
412 1 -48.268866 10.542145 0.000000
413 1 -47.852151 9.836113 0.000000
414 1 -47.059613 12.683851 0.000000
415 1 -46.642897 11.977819 0.000000
416 1 -45.850359 14.825558 0.000000
417 1 -45.433644 14.119526 0.000000
418 1 -44.641106 16.967264 0.000000
419 1 -44.224391 16.261232 0.000000
420 1 -43.431853 19.108971 0.000000
421 1 -43.015138 18.402939 0.000000
422 1 -42.222600 21.250677 0.000000
423 1 -41.805885 20.544645 0.000000
424 1 -41.013347 23.392384 0.000000
425 1 -40.596631 22.686352 0.000000
426 1 -39.804093 25.534090 0.000000
427 1 -39.387378 24.828058 0.000000
428 1 -38.594840 27.675797 0.000000
429 1 -38.178125 26.969765 0.000000
430 1 -37.385587 29.817503 0.000000
431 1 -36.968872 29.111471 0.000000
432 1 -36.176334 31.959210 0.000000
433 1 -35.759619 31.253178 0.000000
434 1 -34.967081 34.100916 0.000000
435 1 -34.550365 33.394884 0.000000
436 1 -33.757828 36.242623 0.000000
437 1 -33.341112 35.536590 0.000000
438 1 -32.548574 38.384329 0.000000
439 1 -32.131859 37.678297 0.000000
440 1 -31.339321 40.526036 0.000000
441 1 -30.922606 39.820003 0.000000
442 1 -30.130068 42.667742 0.000000
443 1 -29.713353 41.961710 0.000000
444 1 -28.920815 44.809449 0.000000
445 1 -28.504100 44.103416 0.000000
446 1 -27.711562 46.951155 0.000000
447 1 -27.294846 46.245123 0.000000
448 1 -26.502308 49.092862 0.000000
449 1 -26.085593 48.386829 0.000000
450 1 -25.293055 51.234568 0.000000
451 1 -24.876340 50.528536 0.000000
452 1 -24.083802 53.376275 0.000000
453 1 -23.667087 52.670242 0.000000
454 1 -22.874549 55.517981 0.000000
455 1 -22.457834 54.811949 0.000000
456 1 -21.665296 57.659688 0.000000
457 1 -21.248580 56.953655 0.000000
458 1 -68.785278 -30.126669 0.000000
459 1 -68.368563 -30.832702 0.000000
460 1 -67.576025 -27.984963 0.000000
461 1 -67.159309 -28.690995 0.000000
462 1 -66.366771 -25.843256 0.000000
463 1 -65.950056 -26.549289 0.000000
464 1 -65.157518 -23.701550 0.000000
465 1 -64.740803 -24.407582 0.000000
466 1 -63.948265 -21.559843 0.000000
467 1 -63.531550 -22.265876 0.000000
468 1 -62.739012 -19.418137 0.000000
469 1 -62.322297 -20.124169 0.000000
470 1 -61.529759 -17.276430 0.000000
471 1 -61.113043 -17.982463 0.000000
472 1 -60.320505 -15.134724 0.000000
473 1 -59.903790 -15.840756 0.000000
474 1 -59.111252 -12.993017 0.000000
475 1 -58.694537 -13.699050 0.000000
476 1 -57.901999 -10.851311 0.000000
477 1 -57.485284 -11.557343 0.000000
478 1 -56.692746 -8.709604 0.000000
479 1 -56.276031 -9.415637 0.000000
480 1 -55.483493 -6.567898 0.000000
481 1 -55.066777 -7.273930 0.000000
482 1 -54.274239 -4.426191 0.000000
483 1 -53.857524 -5.132224 0.000000
484 1 -53.064986 -2.284485 0.000000
485 1 -52.648271 -2.990517 0.000000
486 1 -51.855733 -0.142778 0.000000
487 1 -51.439018 -0.848811 0.000000
488 1 -50.646480 1.998928 0.000000
489 1 -50.229765 1.292896 0.000000
490 1 -49.437227 4.140635 0.000000
491 1 -49.020511 3.434602 0.000000
492 1 -48.227973 6.282341 0.000000
493 1 -47.811258 5.576309 0.000000
494 1 -47.018720 8.424048 0.000000
495 1 -46.602005 7.718015 0.000000
496 1 -45.809467 10.565754 0.000000
497 1 -45.392752 9.859722 0.000000
498 1 -44.600214 12.707461 0.000000
499 1 -44.183499 12.001428 0.000000
500 1 -43.390961 14.849167 0.000000
501 1 -42.974245 14.143135 0.000000
502 1 -42.181707 16.990874 0.000000
503 1 -41.764992 16.284841 0.000000
504 1 -40.972454 19.132580 0.000000
505 1 -40.555739 18.426548 0.000000
506 1 -39.763201 21.274287 0.000000
507 1 -39.346486 20.568254 0.000000
508 1 -38.553948 23.415993 0.000000
509 1 -38.137233 22.709961 0.000000
510 1 -37.344695 25.557700 0.000000
511 1 -36.927979 24.851667 0.000000
512 1 -36.135441 27.699406 0.000000
513 1 -35.718726 26.993374 0.000000
514 1 -34.926188 29.841113 0.000000
515 1 -34.509473 29.135080 0.000000
516 1 -33.716935 31.982819 0.000000
517 1 -33.300220 31.276787 0.000000
518 1 -32.507682 34.124526 0.000000
519 1 -32.090967 33.418493 0.000000
520 1 -31.298429 36.266232 0.000000
521 1 -30.881713 35.560200 0.000000
522 1 -30.089175 38.407939 0.000000
523 1 -29.672460 37.701906 0.000000
524 1 -28.879922 40.549645 0.000000
525 1 -28.463207 39.843613 0.000000
526 1 -27.670669 42.691352 0.000000
527 1 -27.253954 41.985319 0.000000
528 1 -26.461416 44.833058 0.000000
529 1 -26.044701 44.127026 0.000000
530 1 -25.252163 46.974765 0.000000
531 1 -24.835447 46.268732 0.000000
532 1 -24.042910 49.116471 0.000000
533 1 -23.626194 48.410439 0.000000
534 1 -22.833656 51.258178 0.000000
535 1 -22.416941 50.552145 0.000000
536 1 -21.624403 53.399884 0.000000
537 1 -21.207688 52.693852 0.000000
538 1 -20.415150 55.541591 0.000000
539 1 -19.998435 54.835558 0.000000
540 1 -19.205897 57.683297 0.000000
541 1 -18.789182 56.977265 0.000000
542 1 -68.744385 -34.386473 0.000000
543 1 -68.327670 -35.092505 0.000000
544 1 -67.535132 -32.244766 0.000000
545 1 -67.118417 -32.950799 0.000000
546 1 -66.325879 -30.103060 0.000000
547 1 -65.909164 -30.809092 0.000000
548 1 -65.116626 -27.961353 0.000000
549 1 -64.699911 -28.667386 0.000000
550 1 -63.907373 -25.819647 0.000000
551 1 -63.490657 -26.525679 0.000000
552 1 -62.698119 -23.677940 0.000000
553 1 -62.281404 -24.383973 0.000000
554 1 -61.488866 -21.536234 0.000000
555 1 -61.072151 -22.242266 0.000000
556 1 -60.279613 -19.394527 0.000000
557 1 -59.862898 -20.100560 0.000000
558 1 -59.070360 -17.252821 0.000000
559 1 -58.653645 -17.958853 0.000000
560 1 -57.861107 -15.111114 0.000000
561 1 -57.444391 -15.817147 0.000000
562 1 -56.651853 -12.969408 0.000000
563 1 -56.235138 -13.675440 0.000000
564 1 -55.442600 -10.827701 0.000000
565 1 -55.025885 -11.533734 0.000000
566 1 -54.233347 -8.685995 0.000000
567 1 -53.816632 -9.392027 0.000000
568 1 -53.024094 -6.544288 0.000000
569 1 -52.607379 -7.250321 0.000000
570 1 -51.814841 -4.402582 0.000000
571 1 -51.398125 -5.108614 0.000000
572 1 -50.605587 -2.260875 0.000000
573 1 -50.188872 -2.966908 0.000000
574 1 -49.396334 -0.119169 0.000000
575 1 -48.979619 -0.825201 0.000000
576 1 -48.187081 2.022538 0.000000
577 1 -47.770366 1.316505 0.000000
578 1 -46.977828 4.164244 0.000000
579 1 -46.561113 3.458212 0.000000
580 1 -45.768575 6.305951 0.000000
581 1 -45.351859 5.599918 0.000000
582 1 -44.559321 8.447657 0.000000
583 1 -44.142606 7.741625 0.000000
584 1 -43.350068 10.589363 0.000000
585 1 -42.933353 9.883331 0.000000
586 1 -42.140815 12.731070 0.000000
587 1 -41.724100 12.025038 0.000000
588 1 -40.931562 14.872776 0.000000
589 1 -40.514847 14.166744 0.000000
590 1 -39.722309 17.014483 0.000000
591 1 -39.305593 16.308451 0.000000
592 1 -38.513055 19.156189 0.000000
593 1 -38.096340 18.450157 0.000000
594 1 -37.303802 21.297896 0.000000
595 1 -36.887087 20.591864 0.000000
596 1 -36.094549 23.439602 0.000000
597 1 -35.677834 22.733570 0.000000
598 1 -34.885296 25.581309 0.000000
599 1 -34.468581 24.875277 0.000000
600 1 -33.676043 27.723015 0.000000
601 1 -33.259327 27.016983 0.000000
602 1 -32.466789 29.864722 0.000000
603 1 -32.050074 29.158690 0.000000
604 1 -31.257536 32.006428 0.000000
605 1 -30.840821 31.300396 0.000000
606 1 -30.048283 34.148135 0.000000
607 1 -29.631568 33.442103 0.000000
608 1 -28.839030 36.289841 0.000000
609 1 -28.422315 35.583809 0.000000
610 1 -27.629777 38.431548 0.000000
611 1 -27.213061 37.725516 0.000000
612 1 -26.420523 40.573254 0.000000
613 1 -26.003808 39.867222 0.000000
614 1 -25.211270 42.714961 0.000000
615 1 -24.794555 42.008928 0.000000
616 1 -24.002017 44.856667 0.000000
617 1 -23.585302 44.150635 0.000000
618 1 -22.792764 46.998374 0.000000
619 1 -22.376049 46.292341 0.000000
620 1 -21.583511 49.140080 0.000000
621 1 -21.166795 48.434048 0.000000
622 1 -20.374257 51.281787 0.000000
623 1 -19.957542 50.575754 0.000000
624 1 -19.165004 53.423493 0.000000
625 1 -18.748289 52.717461 0.000000
626 1 -17.955751 55.565200 0.000000
627 1 -17.539036 54.859167 0.000000
628 1 -16.746498 57.706906 0.000000
629 1 -16.329783 57.000874 0.000000
630 1 -67.494240 -36.504570 0.000000
631 1 -67.077524 -37.210603 0.000000
632 1 -66.284987 -34.362864 0.000000
633 1 -65.868271 -35.068896 0.000000
634 1 -65.075733 -32.221157 0.000000
635 1 -64.659018 -32.927190 0.000000
636 1 -63.866480 -30.079451 0.000000
637 1 -63.449765 -30.785483 0.000000
638 1 -62.657227 -27.937744 0.000000
639 1 -62.240512 -28.643777 0.000000
640 1 -61.447974 -25.796038 0.000000
641 1 -61.031259 -26.502070 0.000000
642 1 -60.238721 -23.654331 0.000000
643 1 -59.822005 -24.360364 0.000000
644 1 -59.029467 -21.512625 0.000000
645 1 -58.612752 -22.218657 0.000000
646 1 -57.820214 -19.370918 0.000000
647 1 -57.403499 -20.076951 0.000000
648 1 -56.610961 -17.229212 0.000000
649 1 -56.194246 -17.935244 0.000000
650 1 -55.401708 -15.087505 0.000000
651 1 -54.984993 -15.793538 0.000000
652 1 -54.192455 -12.945799 0.000000
653 1 -53.775739 -13.651831 0.000000
654 1 -52.983201 -10.804092 0.000000
655 1 -52.566486 -11.510125 0.000000
656 1 -51.773948 -8.662386 0.000000
657 1 -51.357233 -9.368418 0.000000
658 1 -50.564695 -6.520679 0.000000
659 1 -50.147980 -7.226712 0.000000
660 1 -49.355442 -4.378973 0.000000
661 1 -48.938727 -5.085005 0.000000
662 1 -48.146189 -2.237266 0.000000
663 1 -47.729473 -2.943299 0.000000
664 1 -46.936935 -0.095560 0.000000
665 1 -46.520220 -0.801592 0.000000
666 1 -45.727682 2.046147 0.000000
667 1 -45.310967 1.340114 0.000000
668 1 -44.518429 4.187853 0.000000
669 1 -44.101714 3.481821 0.000000
670 1 -43.309176 6.329560 0.000000
671 1 -42.892461 5.623527 0.000000
672 1 -42.099923 8.471266 0.000000
673 1 -41.683207 7.765234 0.000000
674 1 -40.890669 10.612973 0.000000
675 1 -40.473954 9.906940 0.000000
676 1 -39.681416 12.754679 0.000000
677 1 -39.264701 12.048647 0.000000
678 1 -38.472163 14.896386 0.000000
679 1 -38.055448 14.190353 0.000000
680 1 -37.262910 17.038092 0.000000
681 1 -36.846195 16.332060 0.000000
682 1 -36.053657 19.179799 0.000000
683 1 -35.636941 18.473766 0.000000
684 1 -34.844403 21.321505 0.000000
685 1 -34.427688 20.615473 0.000000
686 1 -33.635150 23.463212 0.000000
687 1 -33.218435 22.757179 0.000000
688 1 -32.425897 25.604918 0.000000
689 1 -32.009182 24.898886 0.000000
690 1 -31.216644 27.746625 0.000000
691 1 -30.799929 27.040592 0.000000
692 1 -30.007391 29.888331 0.000000
693 1 -29.590675 29.182299 0.000000
694 1 -28.798137 32.030038 0.000000
695 1 -28.381422 31.324005 0.000000
696 1 -27.588884 34.171744 0.000000
697 1 -27.172169 33.465712 0.000000
698 1 -26.379631 36.313451 0.000000
699 1 -25.962916 35.607418 0.000000
700 1 -25.170378 38.455157 0.000000
701 1 -24.753663 37.749125 0.000000
702 1 -23.961125 40.596864 0.000000
703 1 -23.544409 39.890831 0.000000
704 1 -22.751871 42.738570 0.000000
705 1 -22.335156 42.032538 0.000000
706 1 -21.542618 44.880277 0.000000
707 1 -21.125903 44.174244 0.000000
708 1 -20.333365 47.021983 0.000000
709 1 -19.916650 46.315951 0.000000
710 1 -19.124112 49.163690 0.000000
711 1 -18.707397 48.457657 0.000000
712 1 -17.914859 51.305396 0.000000
713 1 -17.498143 50.599364 0.000000
714 1 -16.705605 53.447103 0.000000
715 1 -16.288890 52.741070 0.000000
716 1 -15.496352 55.588809 0.000000
717 1 -15.079637 54.882777 0.000000
718 1 -14.287099 57.730516 0.000000
719 1 -13.870384 57.024483 0.000000
720 1 -66.244094 -38.622667 0.000000
721 1 -65.827379 -39.328700 0.000000
722 1 -65.034841 -36.480961 0.000000
723 1 -64.618126 -37.186993 0.000000
724 1 -63.825588 -34.339254 0.000000
725 1 -63.408872 -35.045287 0.000000
726 1 -62.616334 -32.197548 0.000000
727 1 -62.199619 -32.903580 0.000000
728 1 -61.407081 -30.055841 0.000000
729 1 -60.990366 -30.761874 0.000000
730 1 -60.197828 -27.914135 0.000000
731 1 -59.781113 -28.620167 0.000000
732 1 -58.988575 -25.772428 0.000000
733 1 -58.571860 -26.478461 0.000000
734 1 -57.779322 -23.630722 0.000000
735 1 -57.362606 -24.336754 0.000000
736 1 -56.570069 -21.489015 0.000000
737 1 -56.153353 -22.195048 0.000000
738 1 -55.360815 -19.347309 0.000000
739 1 -54.944100 -20.053341 0.000000
740 1 -54.151562 -17.205602 0.000000
741 1 -53.734847 -17.911635 0.000000
742 1 -52.942309 -15.063896 0.000000
743 1 -52.525594 -15.769928 0.000000
744 1 -51.733056 -12.922189 0.000000
745 1 -51.316341 -13.628222 0.000000
746 1 -50.523803 -10.780483 0.000000
747 1 -50.107087 -11.486515 0.000000
748 1 -49.314549 -8.638776 0.000000
749 1 -48.897834 -9.344809 0.000000
750 1 -48.105296 -6.497070 0.000000
751 1 -47.688581 -7.203102 0.000000
752 1 -46.896043 -4.355363 0.000000
753 1 -46.479328 -5.061396 0.000000
754 1 -45.686790 -2.213657 0.000000
755 1 -45.270075 -2.919689 0.000000
756 1 -44.477537 -0.071950 0.000000
757 1 -44.060821 -0.777983 0.000000
758 1 -43.268283 2.069756 0.000000
759 1 -42.851568 1.363724 0.000000
760 1 -42.059030 4.211463 0.000000
761 1 -41.642315 3.505430 0.000000
762 1 -40.849777 6.353169 0.000000
763 1 -40.433062 5.647137 0.000000
764 1 -39.640524 8.494876 0.000000
765 1 -39.223809 7.788843 0.000000
766 1 -38.431271 10.636582 0.000000
767 1 -38.014555 9.930550 0.000000
768 1 -37.222017 12.778289 0.000000
769 1 -36.805302 12.072256 0.000000
770 1 -36.012764 14.919995 0.000000
771 1 -35.596049 14.213963 0.000000
772 1 -34.803511 17.061701 0.000000
773 1 -34.386796 16.355669 0.000000
774 1 -33.594258 19.203408 0.000000
775 1 -33.177543 18.497376 0.000000
776 1 -32.385005 21.345114 0.000000
777 1 -31.968289 20.639082 0.000000
778 1 -31.175751 23.486821 0.000000
779 1 -30.759036 22.780789 0.000000
780 1 -29.966498 25.628527 0.000000
781 1 -29.549783 24.922495 0.000000
782 1 -28.757245 27.770234 0.000000
783 1 -28.340530 27.064202 0.000000
784 1 -27.547992 29.911940 0.000000
785 1 -27.131277 29.205908 0.000000
786 1 -26.338739 32.053647 0.000000
787 1 -25.922023 31.347615 0.000000
788 1 -25.129485 34.195353 0.000000
789 1 -24.712770 33.489321 0.000000
790 1 -23.920232 36.337060 0.000000
791 1 -23.503517 35.631028 0.000000
792 1 -22.710979 38.478766 0.000000
793 1 -22.294264 37.772734 0.000000
794 1 -21.501726 40.620473 0.000000
795 1 -21.085011 39.914441 0.000000
796 1 -20.292473 42.762179 0.000000
797 1 -19.875757 42.056147 0.000000
798 1 -19.083219 44.903886 0.000000
799 1 -18.666504 44.197854 0.000000
800 1 -17.873966 47.045592 0.000000
801 1 -17.457251 46.339560 0.000000
802 1 -16.664713 49.187299 0.000000
803 1 -16.247998 48.481266 0.000000
804 1 -15.455460 51.329005 0.000000
805 1 -15.038745 50.622973 0.000000
806 1 -14.246207 53.470712 0.000000
807 1 -13.829491 52.764679 0.000000
808 1 -13.036953 55.612418 0.000000
809 1 -12.620238 54.906386 0.000000
810 1 -11.827700 57.754125 0.000000
811 1 -11.410985 57.048092 0.000000
812 1 -64.993948 -40.740765 0.000000
813 1 -64.577233 -41.446797 0.000000
814 1 -63.784695 -38.599058 0.000000
815 1 -63.367980 -39.305091 0.000000
816 1 -62.575442 -36.457352 0.000000
817 1 -62.158727 -37.163384 0.000000
818 1 -61.366189 -34.315645 0.000000
819 1 -60.949474 -35.021678 0.000000
820 1 -60.156936 -32.173939 0.000000
821 1 -59.740220 -32.879971 0.000000
822 1 -58.947682 -30.032232 0.000000
823 1 -58.530967 -30.738265 0.000000
824 1 -57.738429 -27.890526 0.000000
825 1 -57.321714 -28.596558 0.000000
826 1 -56.529176 -25.748819 0.000000
827 1 -56.112461 -26.454852 0.000000
828 1 -55.319923 -23.607113 0.000000
829 1 -54.903208 -24.313145 0.000000
830 1 -54.110670 -21.465406 0.000000
831 1 -53.693954 -22.171439 0.000000
832 1 -52.901416 -19.323700 0.000000
833 1 -52.484701 -20.029732 0.000000
834 1 -51.692163 -17.181993 0.000000
835 1 -51.275448 -17.888026 0.000000
836 1 -50.482910 -15.040287 0.000000
837 1 -50.066195 -15.746319 0.000000
838 1 -49.273657 -12.898580 0.000000
839 1 -48.856942 -13.604613 0.000000
840 1 -48.064404 -10.756874 0.000000
841 1 -47.647688 -11.462906 0.000000
842 1 -46.855150 -8.615167 0.000000
843 1 -46.438435 -9.321200 0.000000
844 1 -45.645897 -6.473461 0.000000
845 1 -45.229182 -7.179493 0.000000
846 1 -44.436644 -4.331754 0.000000
847 1 -44.019929 -5.037787 0.000000
848 1 -43.227391 -2.190048 0.000000
849 1 -42.810676 -2.896080 0.000000
850 1 -42.018138 -0.048341 0.000000
851 1 -41.601422 -0.754374 0.000000
852 1 -40.808885 2.093365 0.000000
853 1 -40.392169 1.387333 0.000000
854 1 -39.599631 4.235072 0.000000
855 1 -39.182916 3.529039 0.000000
856 1 -38.390378 6.376778 0.000000
857 1 -37.973663 5.670746 0.000000
858 1 -37.181125 8.518485 0.000000
859 1 -36.764410 7.812452 0.000000
860 1 -35.971872 10.660191 0.000000
861 1 -35.555157 9.954159 0.000000
862 1 -34.762619 12.801898 0.000000
863 1 -34.345903 12.095865 0.000000
864 1 -33.553365 14.943604 0.000000
865 1 -33.136650 14.237572 0.000000
866 1 -32.344112 17.085311 0.000000
867 1 -31.927397 16.379278 0.000000
868 1 -31.134859 19.227017 0.000000
869 1 -30.718144 18.520985 0.000000
870 1 -29.925606 21.368724 0.000000
871 1 -29.508891 20.662691 0.000000
872 1 -28.716353 23.510430 0.000000
873 1 -28.299637 22.804398 0.000000
874 1 -27.507099 25.652137 0.000000
875 1 -27.090384 24.946104 0.000000
876 1 -26.297846 27.793843 0.000000
877 1 -25.881131 27.087811 0.000000
878 1 -25.088593 29.935550 0.000000
879 1 -24.671878 29.229517 0.000000
880 1 -23.879340 32.077256 0.000000
881 1 -23.462625 31.371224 0.000000
882 1 -22.670087 34.218963 0.000000
883 1 -22.253371 33.512930 0.000000
884 1 -21.460833 36.360669 0.000000
885 1 -21.044118 35.654637 0.000000
886 1 -20.251580 38.502376 0.000000
887 1 -19.834865 37.796343 0.000000
888 1 -19.042327 40.644082 0.000000
889 1 -18.625612 39.938050 0.000000
890 1 -17.833074 42.785789 0.000000
891 1 -17.416359 42.079756 0.000000
892 1 -16.623821 44.927495 0.000000
893 1 -16.207105 44.221463 0.000000
894 1 -15.414567 47.069202 0.000000
895 1 -14.997852 46.363169 0.000000
896 1 -14.205314 49.210908 0.000000
897 1 -13.788599 48.504876 0.000000
898 1 -12.996061 51.352615 0.000000
899 1 -12.579346 50.646582 0.000000
900 1 -11.786808 53.494321 0.000000
901 1 -11.370093 52.788289 0.000000
902 1 -10.577555 55.636028 0.000000
903 1 -10.160839 54.929995 0.000000
904 1 -9.368301 57.777734 0.000000
905 1 -8.951586 57.071702 0.000000
906 1 -63.743803 -42.858862 0.000000
907 1 -63.327088 -43.564894 0.000000
908 1 -62.534550 -40.717155 0.000000
909 1 -62.117834 -41.423188 0.000000
910 1 -61.325296 -38.575449 0.000000
911 1 -60.908581 -39.281481 0.000000
912 1 -60.116043 -36.433742 0.000000
913 1 -59.699328 -37.139775 0.000000
914 1 -58.906790 -34.292036 0.000000
915 1 -58.490075 -34.998068 0.000000
916 1 -57.697537 -32.150329 0.000000
917 1 -57.280822 -32.856362 0.000000
918 1 -56.488284 -30.008623 0.000000
919 1 -56.071568 -30.714655 0.000000
920 1 -55.279030 -27.866916 0.000000
921 1 -54.862315 -28.572949 0.000000
922 1 -54.069777 -25.725210 0.000000
923 1 -53.653062 -26.431242 0.000000
924 1 -52.860524 -23.583503 0.000000
925 1 -52.443809 -24.289536 0.000000
926 1 -51.651271 -21.441797 0.000000
927 1 -51.234556 -22.147829 0.000000
928 1 -50.442018 -19.300090 0.000000
929 1 -50.025302 -20.006123 0.000000
930 1 -49.232764 -17.158384 0.000000
931 1 -48.816049 -17.864416 0.000000
932 1 -48.023511 -15.016677 0.000000
933 1 -47.606796 -15.722710 0.000000
934 1 -46.814258 -12.874971 0.000000
935 1 -46.397543 -13.581003 0.000000
936 1 -45.605005 -10.733264 0.000000
937 1 -45.188290 -11.439297 0.000000
938 1 -44.395752 -8.591558 0.000000
939 1 -43.979036 -9.297590 0.000000
940 1 -43.186498 -6.449851 0.000000
941 1 -42.769783 -7.155884 0.000000
942 1 -41.977245 -4.308145 0.000000
943 1 -41.560530 -5.014177 0.000000
944 1 -40.767992 -2.166438 0.000000
945 1 -40.351277 -2.872471 0.000000
946 1 -39.558739 -0.024732 0.000000
947 1 -39.142024 -0.730764 0.000000
948 1 -38.349486 2.116975 0.000000
949 1 -37.932770 1.410942 0.000000
950 1 -37.140232 4.258681 0.000000
951 1 -36.723517 3.552649 0.000000
952 1 -35.930979 6.400388 0.000000
953 1 -35.514264 5.694355 0.000000
954 1 -34.721726 8.542094 0.000000
955 1 -34.305011 7.836062 0.000000
956 1 -33.512473 10.683801 0.000000
957 1 -33.095758 9.977768 0.000000
958 1 -32.303220 12.825507 0.000000
959 1 -31.886504 12.119475 0.000000
960 1 -31.093967 14.967214 0.000000
961 1 -30.677251 14.261181 0.000000
962 1 -29.884713 17.108920 0.000000
963 1 -29.467998 16.402888 0.000000
964 1 -28.675460 19.250627 0.000000
965 1 -28.258745 18.544594 0.000000
966 1 -27.466207 21.392333 0.000000
967 1 -27.049492 20.686301 0.000000
968 1 -26.256954 23.534039 0.000000
969 1 -25.840239 22.828007 0.000000
970 1 -25.047701 25.675746 0.000000
971 1 -24.630985 24.969714 0.000000
972 1 -23.838447 27.817452 0.000000
973 1 -23.421732 27.111420 0.000000
974 1 -22.629194 29.959159 0.000000
975 1 -22.212479 29.253127 0.000000
976 1 -21.419941 32.100865 0.000000
977 1 -21.003226 31.394833 0.000000
978 1 -20.210688 34.242572 0.000000
979 1 -19.793973 33.536540 0.000000
980 1 -19.001435 36.384278 0.000000
981 1 -18.584719 35.678246 0.000000
982 1 -17.792181 38.525985 0.000000
983 1 -17.375466 37.819953 0.000000
984 1 -16.582928 40.667691 0.000000
985 1 -16.166213 39.961659 0.000000
986 1 -15.373675 42.809398 0.000000
987 1 -14.956960 42.103366 0.000000
988 1 -14.164422 44.951104 0.000000
989 1 -13.747707 44.245072 0.000000
990 1 -12.955169 47.092811 0.000000
991 1 -12.538453 46.386779 0.000000
992 1 -11.745915 49.234517 0.000000
993 1 -11.329200 48.528485 0.000000
994 1 -10.536662 51.376224 0.000000
995 1 -10.119947 50.670192 0.000000
996 1 -9.327409 53.517930 0.000000
997 1 -8.910694 52.811898 0.000000
998 1 -8.118156 55.659637 0.000000
999 1 -7.701441 54.953604 0.000000
1000 1 -6.908903 57.801343 0.000000
1001 1 -6.492187 57.095311 0.000000
1002 1 -61.284404 -42.835253 0.000000
1003 1 -60.867689 -43.541285 0.000000
1004 1 -60.075151 -40.693546 0.000000
1005 1 -59.658436 -41.399578 0.000000
1006 1 -58.865898 -38.551840 0.000000
1007 1 -58.449182 -39.257872 0.000000
1008 1 -57.656644 -36.410133 0.000000
1009 1 -57.239929 -37.116165 0.000000
1010 1 -56.447391 -34.268427 0.000000
1011 1 -56.030676 -34.974459 0.000000
1012 1 -55.238138 -32.126720 0.000000
1013 1 -54.821423 -32.832753 0.000000
1014 1 -54.028885 -29.985014 0.000000
1015 1 -53.612170 -30.691046 0.000000
1016 1 -52.819632 -27.843307 0.000000
1017 1 -52.402916 -28.549340 0.000000
1018 1 -51.610378 -25.701601 0.000000
1019 1 -51.193663 -26.407633 0.000000
1020 1 -50.401125 -23.559894 0.000000
1021 1 -49.984410 -24.265927 0.000000
1022 1 -49.191872 -21.418188 0.000000
1023 1 -48.775157 -22.124220 0.000000
1024 1 -47.982619 -19.276481 0.000000
1025 1 -47.565904 -19.982514 0.000000
1026 1 -46.773366 -17.134775 0.000000
1027 1 -46.356650 -17.840807 0.000000
1028 1 -45.564112 -14.993068 0.000000
1029 1 -45.147397 -15.699101 0.000000
1030 1 -44.354859 -12.851362 0.000000
1031 1 -43.938144 -13.557394 0.000000
1032 1 -43.145606 -10.709655 0.000000
1033 1 -42.728891 -11.415688 0.000000
1034 1 -41.936353 -8.567949 0.000000
1035 1 -41.519638 -9.273981 0.000000
1036 1 -40.727100 -6.426242 0.000000
1037 1 -40.310384 -7.132275 0.000000
1038 1 -39.517846 -4.284536 0.000000
1039 1 -39.101131 -4.990568 0.000000
1040 1 -38.308593 -2.142829 0.000000
1041 1 -37.891878 -2.848862 0.000000
1042 1 -37.099340 -0.001123 0.000000
1043 1 -36.682625 -0.707155 0.000000
1044 1 -35.890087 2.140584 0.000000
1045 1 -35.473372 1.434551 0.000000
1046 1 -34.680834 4.282290 0.000000
1047 1 -34.264118 3.576258 0.000000
1048 1 -33.471580 6.423997 0.000000
1049 1 -33.054865 5.717964 0.000000
1050 1 -32.262327 8.565703 0.000000
1051 1 -31.845612 7.859671 0.000000
1052 1 -31.053074 10.707410 0.000000
1053 1 -30.636359 10.001377 0.000000
1054 1 -29.843821 12.849116 0.000000
1055 1 -29.427106 12.143084 0.000000
1056 1 -28.634568 14.990823 0.000000
1057 1 -28.217852 14.284790 0.000000
1058 1 -27.425314 17.132529 0.000000
1059 1 -27.008599 16.426497 0.000000
1060 1 -26.216061 19.274236 0.000000
1061 1 -25.799346 18.568203 0.000000
1062 1 -25.006808 21.415942 0.000000
1063 1 -24.590093 20.709910 0.000000
1064 1 -23.797555 23.557649 0.000000
1065 1 -23.380840 22.851616 0.000000
1066 1 -22.588302 25.699355 0.000000
1067 1 -22.171586 24.993323 0.000000
1068 1 -21.379048 27.841062 0.000000
1069 1 -20.962333 27.135029 0.000000
1070 1 -20.169795 29.982768 0.000000
1071 1 -19.753080 29.276736 0.000000
1072 1 -18.960542 32.124475 0.000000
1073 1 -18.543827 31.418442 0.000000
1074 1 -17.751289 34.266181 0.000000
1075 1 -17.334574 33.560149 0.000000
1076 1 -16.542036 36.407888 0.000000
1077 1 -16.125320 35.701855 0.000000
1078 1 -15.332783 38.549594 0.000000
1079 1 -14.916067 37.843562 0.000000
1080 1 -14.123529 40.691301 0.000000
1081 1 -13.706814 39.985268 0.000000
1082 1 -12.914276 42.833007 0.000000
1083 1 -12.497561 42.126975 0.000000
1084 1 -11.705023 44.974714 0.000000
1085 1 -11.288308 44.268681 0.000000
1086 1 -10.495770 47.116420 0.000000
1087 1 -10.079055 46.410388 0.000000
1088 1 -9.286517 49.258127 0.000000
1089 1 -8.869801 48.552094 0.000000
1090 1 -8.077263 51.399833 0.000000
1091 1 -7.660548 50.693801 0.000000
1092 1 -6.868010 53.541540 0.000000
1093 1 -6.451295 52.835507 0.000000
1094 1 -5.658757 55.683246 0.000000
1095 1 -5.242042 54.977214 0.000000
1096 1 -4.449504 57.824953 0.000000
1097 1 -4.032789 57.118920 0.000000
1098 1 -60.034258 -44.953350 0.000000
1099 1 -59.617543 -45.659382 0.000000
1100 1 -58.825005 -42.811643 0.000000
1101 1 -58.408290 -43.517676 0.000000
1102 1 -57.615752 -40.669937 0.000000
1103 1 -57.199037 -41.375969 0.000000
1104 1 -56.406499 -38.528230 0.000000
1105 1 -55.989784 -39.234263 0.000000
1106 1 -55.197246 -36.386524 0.000000
1107 1 -54.780530 -37.092556 0.000000
1108 1 -53.987992 -34.244817 0.000000
1109 1 -53.571277 -34.950850 0.000000
1110 1 -52.778739 -32.103111 0.000000
1111 1 -52.362024 -32.809143 0.000000
1112 1 -51.569486 -29.961404 0.000000
1113 1 -51.152771 -30.667437 0.000000
1114 1 -50.360233 -27.819698 0.000000
1115 1 -49.943518 -28.525730 0.000000
1116 1 -49.150980 -25.677991 0.000000
1117 1 -48.734264 -26.384024 0.000000
1118 1 -47.941726 -23.536285 0.000000
1119 1 -47.525011 -24.242317 0.000000
1120 1 -46.732473 -21.394578 0.000000
1121 1 -46.315758 -22.100611 0.000000
1122 1 -45.523220 -19.252872 0.000000
1123 1 -45.106505 -19.958904 0.000000
1124 1 -44.313967 -17.111165 0.000000
1125 1 -43.897252 -17.817198 0.000000
1126 1 -43.104714 -14.969459 0.000000
1127 1 -42.687998 -15.675491 0.000000
1128 1 -41.895460 -12.827752 0.000000
1129 1 -41.478745 -13.533785 0.000000
1130 1 -40.686207 -10.686046 0.000000
1131 1 -40.269492 -11.392078 0.000000
1132 1 -39.476954 -8.544339 0.000000
1133 1 -39.060239 -9.250372 0.000000
1134 1 -38.267701 -6.402633 0.000000
1135 1 -37.850986 -7.108665 0.000000
1136 1 -37.058448 -4.260926 0.000000
1137 1 -36.641732 -4.966959 0.000000
1138 1 -35.849194 -2.119220 0.000000
1139 1 -35.432479 -2.825252 0.000000
1140 1 -34.639941 0.022487 0.000000
1141 1 -34.223226 -0.683546 0.000000
1142 1 -33.430688 2.164193 0.000000
1143 1 -33.013973 1.458161 0.000000
1144 1 -32.221435 4.305900 0.000000
1145 1 -31.804720 3.599867 0.000000
1146 1 -31.012182 6.447606 0.000000
1147 1 -30.595466 5.741574 0.000000
1148 1 -29.802928 8.589313 0.000000
1149 1 -29.386213 7.883280 0.000000
1150 1 -28.593675 10.731019 0.000000
1151 1 -28.176960 10.024987 0.000000
1152 1 -27.384422 12.872726 0.000000
1153 1 -26.967707 12.166693 0.000000
1154 1 -26.175169 15.014432 0.000000
1155 1 -25.758454 14.308400 0.000000
1156 1 -24.965916 17.156139 0.000000
1157 1 -24.549200 16.450106 0.000000
1158 1 -23.756662 19.297845 0.000000
1159 1 -23.339947 18.591813 0.000000
1160 1 -22.547409 21.439552 0.000000
1161 1 -22.130694 20.733519 0.000000
1162 1 -21.338156 23.581258 0.000000
1163 1 -20.921441 22.875226 0.000000
1164 1 -20.128903 25.722965 0.000000
1165 1 -19.712188 25.016932 0.000000
1166 1 -18.919650 27.864671 0.000000
1167 1 -18.502934 27.158639 0.000000
1168 1 -17.710396 30.006377 0.000000
1169 1 -17.293681 29.300345 0.000000
1170 1 -16.501143 32.148084 0.000000
1171 1 -16.084428 31.442052 0.000000
1172 1 -15.291890 34.289790 0.000000
1173 1 -14.875175 33.583758 0.000000
1174 1 -14.082637 36.431497 0.000000
1175 1 -13.665922 35.725465 0.000000
1176 1 -12.873384 38.573203 0.000000
1177 1 -12.456668 37.867171 0.000000
1178 1 -11.664130 40.714910 0.000000
1179 1 -11.247415 40.008878 0.000000
1180 1 -10.454877 42.856616 0.000000
1181 1 -10.038162 42.150584 0.000000
1182 1 -9.245624 44.998323 0.000000
1183 1 -8.828909 44.292291 0.000000
1184 1 -8.036371 47.140029 0.000000
1185 1 -7.619656 46.433997 0.000000
1186 1 -6.827118 49.281736 0.000000
1187 1 -6.410402 48.575704 0.000000
1188 1 -5.617865 51.423442 0.000000
1189 1 -5.201149 50.717410 0.000000
1190 1 -4.408611 53.565149 0.000000
1191 1 -3.991896 52.859117 0.000000
1192 1 -3.199358 55.706855 0.000000
1193 1 -2.782643 55.000823 0.000000
1194 1 -1.990105 57.848562 0.000000
1195 1 -1.573390 57.142530 0.000000
1196 1 -58.784113 -47.071447 0.000000
1197 1 -58.367398 -47.777479 0.000000
1198 1 -57.574860 -44.929741 0.000000
1199 1 -57.158144 -45.635773 0.000000
1200 1 -56.365606 -42.788034 0.000000
1201 1 -55.948891 -43.494066 0.000000
1202 1 -55.156353 -40.646328 0.000000
1203 1 -54.739638 -41.352360 0.000000
1204 1 -53.947100 -38.504621 0.000000
1205 1 -53.530385 -39.210653 0.000000
1206 1 -52.737847 -36.362915 0.000000
1207 1 -52.321132 -37.068947 0.000000
1208 1 -51.528594 -34.221208 0.000000
1209 1 -51.111878 -34.927240 0.000000
1210 1 -50.319340 -32.079502 0.000000
1211 1 -49.902625 -32.785534 0.000000
1212 1 -49.110087 -29.937795 0.000000
1213 1 -48.693372 -30.643827 0.000000
1214 1 -47.900834 -27.796089 0.000000
1215 1 -47.484119 -28.502121 0.000000
1216 1 -46.691581 -25.654382 0.000000
1217 1 -46.274866 -26.360415 0.000000
1218 1 -45.482328 -23.512676 0.000000
1219 1 -45.065612 -24.218708 0.000000
1220 1 -44.273074 -21.370969 0.000000
1221 1 -43.856359 -22.077002 0.000000
1222 1 -43.063821 -19.229263 0.000000
1223 1 -42.647106 -19.935295 0.000000
1224 1 -41.854568 -17.087556 0.000000
1225 1 -41.437853 -17.793589 0.000000
1226 1 -40.645315 -14.945850 0.000000
1227 1 -40.228600 -15.651882 0.000000
1228 1 -39.436062 -12.804143 0.000000
1229 1 -39.019346 -13.510176 0.000000
1230 1 -38.226808 -10.662437 0.000000
1231 1 -37.810093 -11.368469 0.000000
1232 1 -37.017555 -8.520730 0.000000
1233 1 -36.600840 -9.226763 0.000000
1234 1 -35.808302 -6.379024 0.000000
1235 1 -35.391587 -7.085056 0.000000
1236 1 -34.599049 -4.237317 0.000000
1237 1 -34.182334 -4.943350 0.000000
1238 1 -33.389796 -2.095611 0.000000
1239 1 -32.973080 -2.801643 0.000000
1240 1 -32.180542 0.046096 0.000000
1241 1 -31.763827 -0.659937 0.000000
1242 1 -30.971289 2.187802 0.000000
1243 1 -30.554574 1.481770 0.000000
1244 1 -29.762036 4.329509 0.000000
1245 1 -29.345321 3.623476 0.000000
1246 1 -28.552783 6.471215 0.000000
1247 1 -28.136068 5.765183 0.000000
1248 1 -27.343530 8.612922 0.000000
1249 1 -26.926814 7.906889 0.000000
1250 1 -26.134276 10.754628 0.000000
1251 1 -25.717561 10.048596 0.000000
1252 1 -24.925023 12.896335 0.000000
1253 1 -24.508308 12.190302 0.000000
1254 1 -23.715770 15.038041 0.000000
1255 1 -23.299055 14.332009 0.000000
1256 1 -22.506517 17.179748 0.000000
1257 1 -22.089802 16.473715 0.000000
1258 1 -21.297264 19.321454 0.000000
1259 1 -20.880548 18.615422 0.000000
1260 1 -20.088010 21.463161 0.000000
1261 1 -19.671295 20.757128 0.000000
1262 1 -18.878757 23.604867 0.000000
1263 1 -18.462042 22.898835 0.000000
1264 1 -17.669504 25.746574 0.000000
1265 1 -17.252789 25.040541 0.000000
1266 1 -16.460251 27.888280 0.000000
1267 1 -16.043536 27.182248 0.000000
1268 1 -15.250998 30.029987 0.000000
1269 1 -14.834282 29.323954 0.000000
1270 1 -14.041744 32.171693 0.000000
1271 1 -13.625029 31.465661 0.000000
1272 1 -12.832491 34.313400 0.000000
1273 1 -12.415776 33.607367 0.000000
1274 1 -11.623238 36.455106 0.000000
1275 1 -11.206523 35.749074 0.000000
1276 1 -10.413985 38.596813 0.000000
1277 1 -9.997270 37.890780 0.000000
1278 1 -9.204732 40.738519 0.000000
1279 1 -8.788016 40.032487 0.000000
1280 1 -7.995478 42.880226 0.000000
1281 1 -7.578763 42.174193 0.000000
1282 1 -6.786225 45.021932 0.000000
1283 1 -6.369510 44.315900 0.000000
1284 1 -5.576972 47.163639 0.000000
1285 1 -5.160257 46.457606 0.000000
1286 1 -4.367719 49.305345 0.000000
1287 1 -3.951004 48.599313 0.000000
1288 1 -3.158466 51.447052 0.000000
1289 1 -2.741750 50.741019 0.000000
1290 1 -1.949212 53.588758 0.000000
1291 1 -1.532497 52.882726 0.000000
1292 1 -0.739959 55.730465 0.000000
1293 1 -0.323244 55.024432 0.000000
1294 1 0.469294 57.872171 0.000000
1295 1 0.886009 57.166139 0.000000
1296 1 -57.533967 -49.189544 0.000000
1297 1 -57.117252 -49.895577 0.000000
1298 1 -56.324714 -47.047838 0.000000
1299 1 -55.907999 -47.753870 0.000000
1300 1 -55.115461 -44.906131 0.000000
1301 1 -54.698745 -45.612164 0.000000
1302 1 -53.906207 -42.764425 0.000000
1303 1 -53.489492 -43.470457 0.000000
1304 1 -52.696954 -40.622718 0.000000
1305 1 -52.280239 -41.328751 0.000000
1306 1 -51.487701 -38.481012 0.000000
1307 1 -51.070986 -39.187044 0.000000
1308 1 -50.278448 -36.339305 0.000000
1309 1 -49.861733 -37.045338 0.000000
1310 1 -49.069195 -34.197599 0.000000
1311 1 -48.652479 -34.903631 0.000000
1312 1 -47.859942 -32.055892 0.000000
1313 1 -47.443226 -32.761925 0.000000
1314 1 -46.650688 -29.914186 0.000000
1315 1 -46.233973 -30.620218 0.000000
1316 1 -45.441435 -27.772479 0.000000
1317 1 -45.024720 -28.478512 0.000000
1318 1 -44.232182 -25.630773 0.000000
1319 1 -43.815467 -26.336805 0.000000
1320 1 -43.022929 -23.489066 0.000000
1321 1 -42.606214 -24.195099 0.000000
1322 1 -41.813676 -21.347360 0.000000
1323 1 -41.396960 -22.053392 0.000000
1324 1 -40.604422 -19.205653 0.000000
1325 1 -40.187707 -19.911686 0.000000
1326 1 -39.395169 -17.063947 0.000000
1327 1 -38.978454 -17.769979 0.000000
1328 1 -38.185916 -14.922240 0.000000
1329 1 -37.769201 -15.628273 0.000000
1330 1 -36.976663 -12.780534 0.000000
1331 1 -36.559948 -13.486566 0.000000
1332 1 -35.767410 -10.638827 0.000000
1333 1 -35.350694 -11.344860 0.000000
1334 1 -34.558156 -8.497121 0.000000
1335 1 -34.141441 -9.203153 0.000000
1336 1 -33.348903 -6.355414 0.000000
1337 1 -32.932188 -7.061447 0.000000
1338 1 -32.139650 -4.213708 0.000000
1339 1 -31.722935 -4.919740 0.000000
1340 1 -30.930397 -2.072001 0.000000
1341 1 -30.513682 -2.778034 0.000000
1342 1 -29.721144 0.069705 0.000000
1343 1 -29.304428 -0.636327 0.000000
1344 1 -28.511890 2.211412 0.000000
1345 1 -28.095175 1.505379 0.000000
1346 1 -27.302637 4.353118 0.000000
1347 1 -26.885922 3.647086 0.000000
1348 1 -26.093384 6.494825 0.000000
1349 1 -25.676669 5.788792 0.000000
1350 1 -24.884131 8.636531 0.000000
1351 1 -24.467416 7.930499 0.000000
1352 1 -23.674878 10.778238 0.000000
1353 1 -23.258162 10.072205 0.000000
1354 1 -22.465624 12.919944 0.000000
1355 1 -22.048909 12.213912 0.000000
1356 1 -21.256371 15.061651 0.000000
1357 1 -20.839656 14.355618 0.000000
1358 1 -20.047118 17.203357 0.000000
1359 1 -19.630403 16.497325 0.000000
1360 1 -18.837865 19.345064 0.000000
1361 1 -18.421150 18.639031 0.000000
1362 1 -17.628612 21.486770 0.000000
1363 1 -17.211896 20.780738 0.000000
1364 1 -16.419358 23.628477 0.000000
1365 1 -16.002643 22.922444 0.000000
1366 1 -15.210105 25.770183 0.000000
1367 1 -14.793390 25.064151 0.000000
1368 1 -14.000852 27.911890 0.000000
1369 1 -13.584137 27.205857 0.000000
1370 1 -12.791599 30.053596 0.000000
1371 1 -12.374884 29.347564 0.000000
1372 1 -11.582346 32.195303 0.000000
1373 1 -11.165630 31.489270 0.000000
1374 1 -10.373092 34.337009 0.000000
1375 1 -9.956377 33.630977 0.000000
1376 1 -9.163839 36.478715 0.000000
1377 1 -8.747124 35.772683 0.000000
1378 1 -7.954586 38.620422 0.000000
1379 1 -7.537871 37.914390 0.000000
1380 1 -6.745333 40.762128 0.000000
1381 1 -6.328618 40.056096 0.000000
1382 1 -5.536080 42.903835 0.000000
1383 1 -5.119364 42.197803 0.000000
1384 1 -4.326826 45.045541 0.000000
1385 1 -3.910111 44.339509 0.000000
1386 1 -3.117573 47.187248 0.000000
1387 1 -2.700858 46.481216 0.000000
1388 1 -1.908320 49.328954 0.000000
1389 1 -1.491605 48.622922 0.000000
1390 1 -0.699067 51.470661 0.000000
1391 1 -0.282352 50.764629 0.000000
1392 1 0.510186 53.612367 0.000000
1393 1 0.926902 52.906335 0.000000
1394 1 1.719440 55.754074 0.000000
1395 1 2.136155 55.048042 0.000000
1396 1 2.928693 57.895780 0.000000
1397 1 3.345408 57.189748 0.000000
1398 1 -56.283821 -51.307642 0.000000
1399 1 -55.867106 -52.013674 0.000000
1400 1 -55.074568 -49.165935 0.000000
1401 1 -54.657853 -49.871967 0.000000
1402 1 -53.865315 -47.024229 0.000000
1403 1 -53.448600 -47.730261 0.000000
1404 1 -52.656062 -44.882522 0.000000
1405 1 -52.239347 -45.588554 0.000000
1406 1 -51.446809 -42.740816 0.000000
1407 1 -51.030093 -43.446848 0.000000
1408 1 -50.237555 -40.599109 0.000000
1409 1 -49.820840 -41.305141 0.000000
1410 1 -49.028302 -38.457403 0.000000
1411 1 -48.611587 -39.163435 0.000000
1412 1 -47.819049 -36.315696 0.000000
1413 1 -47.402334 -37.021728 0.000000
1414 1 -46.609796 -34.173990 0.000000
1415 1 -46.193081 -34.880022 0.000000
1416 1 -45.400543 -32.032283 0.000000
1417 1 -44.983827 -32.738315 0.000000
1418 1 -44.191289 -29.890577 0.000000
1419 1 -43.774574 -30.596609 0.000000
1420 1 -42.982036 -27.748870 0.000000
1421 1 -42.565321 -28.454902 0.000000
1422 1 -41.772783 -25.607164 0.000000
1423 1 -41.356068 -26.313196 0.000000
1424 1 -40.563530 -23.465457 0.000000
1425 1 -40.146815 -24.171489 0.000000
1426 1 -39.354277 -21.323751 0.000000
1427 1 -38.937561 -22.029783 0.000000
1428 1 -38.145024 -19.182044 0.000000
1429 1 -37.728308 -19.888077 0.000000
1430 1 -36.935770 -17.040338 0.000000
1431 1 -36.519055 -17.746370 0.000000
1432 1 -35.726517 -14.898631 0.000000
1433 1 -35.309802 -15.604664 0.000000
1434 1 -34.517264 -12.756925 0.000000
1435 1 -34.100549 -13.462957 0.000000
1436 1 -33.308011 -10.615218 0.000000
1437 1 -32.891296 -11.321251 0.000000
1438 1 -32.098758 -8.473512 0.000000
1439 1 -31.682042 -9.179544 0.000000
1440 1 -30.889504 -6.331805 0.000000
1441 1 -30.472789 -7.037838 0.000000
1442 1 -29.680251 -4.190099 0.000000
1443 1 -29.263536 -4.896131 0.000000
1444 1 -28.470998 -2.048392 0.000000
1445 1 -28.054283 -2.754425 0.000000
1446 1 -27.261745 0.093314 0.000000
1447 1 -26.845030 -0.612718 0.000000
1448 1 -26.052492 2.235021 0.000000
1449 1 -25.635776 1.528988 0.000000
1450 1 -24.843238 4.376727 0.000000
1451 1 -24.426523 3.670695 0.000000
1452 1 -23.633985 6.518434 0.000000
1453 1 -23.217270 5.812401 0.000000
1454 1 -22.424732 8.660140 0.000000
1455 1 -22.008017 7.954108 0.000000
1456 1 -21.215479 10.801847 0.000000
1457 1 -20.798764 10.095814 0.000000
1458 1 -20.006226 12.943553 0.000000
1459 1 -19.589510 12.237521 0.000000
1460 1 -18.796972 15.085260 0.000000
1461 1 -18.380257 14.379227 0.000000
1462 1 -17.587719 17.226966 0.000000
1463 1 -17.171004 16.520934 0.000000
1464 1 -16.378466 19.368673 0.000000
1465 1 -15.961751 18.662640 0.000000
1466 1 -15.169213 21.510379 0.000000
1467 1 -14.752498 20.804347 0.000000
1468 1 -13.959960 23.652086 0.000000
1469 1 -13.543244 22.946053 0.000000
1470 1 -12.750706 25.793792 0.000000
1471 1 -12.333991 25.087760 0.000000
1472 1 -11.541453 27.935499 0.000000
1473 1 -11.124738 27.229466 0.000000
1474 1 -10.332200 30.077205 0.000000
1475 1 -9.915485 29.371173 0.000000
1476 1 -9.122947 32.218912 0.000000
1477 1 -8.706232 31.512879 0.000000
1478 1 -7.913694 34.360618 0.000000
1479 1 -7.496978 33.654586 0.000000
1480 1 -6.704440 36.502325 0.000000
1481 1 -6.287725 35.796292 0.000000
1482 1 -5.495187 38.644031 0.000000
1483 1 -5.078472 37.937999 0.000000
1484 1 -4.285934 40.785738 0.000000
1485 1 -3.869219 40.079705 0.000000
1486 1 -3.076681 42.927444 0.000000
1487 1 -2.659966 42.221412 0.000000
1488 1 -1.867428 45.069151 0.000000
1489 1 -1.450712 44.363118 0.000000
1490 1 -0.658174 47.210857 0.000000
1491 1 -0.241459 46.504825 0.000000
1492 1 0.551079 49.352564 0.000000
1493 1 0.967794 48.646531 0.000000
1494 1 1.760332 51.494270 0.000000
1495 1 2.177047 50.788238 0.000000
1496 1 2.969585 53.635977 0.000000
1497 1 3.386300 52.929944 0.000000
1498 1 4.178838 55.777683 0.000000
1499 1 4.595554 55.071651 0.000000
1500 1 5.388092 57.919390 0.000000
1501 1 5.804807 57.213357 0.000000
1502 1 -55.033676 -53.425739 0.000000
1503 1 -53.824423 -51.284032 0.000000
1504 1 -53.407707 -51.990065 0.000000
1505 1 -52.615169 -49.142326 0.000000
1506 1 -52.198454 -49.848358 0.000000
1507 1 -51.405916 -47.000619 0.000000
1508 1 -50.989201 -47.706652 0.000000
1509 1 -50.196663 -44.858913 0.000000
1510 1 -49.779948 -45.564945 0.000000
1511 1 -48.987410 -42.717206 0.000000
1512 1 -48.570695 -43.423239 0.000000
1513 1 -47.778157 -40.575500 0.000000
1514 1 -47.361441 -41.281532 0.000000
1515 1 -46.568903 -38.433793 0.000000
1516 1 -46.152188 -39.139826 0.000000
1517 1 -45.359650 -36.292087 0.000000
1518 1 -44.942935 -36.998119 0.000000
1519 1 -44.150397 -34.150380 0.000000
1520 1 -43.733682 -34.856413 0.000000
1521 1 -42.941144 -32.008674 0.000000
1522 1 -42.524429 -32.714706 0.000000
1523 1 -41.731891 -29.866967 0.000000
1524 1 -41.315175 -30.573000 0.000000
1525 1 -40.522637 -27.725261 0.000000
1526 1 -40.105922 -28.431293 0.000000
1527 1 -39.313384 -25.583554 0.000000
1528 1 -38.896669 -26.289587 0.000000
1529 1 -38.104131 -23.441848 0.000000
1530 1 -37.687416 -24.147880 0.000000
1531 1 -36.894878 -21.300141 0.000000
1532 1 -36.478163 -22.006174 0.000000
1533 1 -35.685625 -19.158435 0.000000
1534 1 -35.268909 -19.864467 0.000000
1535 1 -34.476371 -17.016728 0.000000
1536 1 -34.059656 -17.722761 0.000000
1537 1 -33.267118 -14.875022 0.000000
1538 1 -32.850403 -15.581054 0.000000
1539 1 -32.057865 -12.733315 0.000000
1540 1 -31.641150 -13.439348 0.000000
1541 1 -30.848612 -10.591609 0.000000
1542 1 -30.431897 -11.297641 0.000000
1543 1 -29.639359 -8.449902 0.000000
1544 1 -29.222643 -9.155935 0.000000
1545 1 -28.430105 -6.308196 0.000000
1546 1 -28.013390 -7.014228 0.000000
1547 1 -27.220852 -4.166489 0.000000
1548 1 -26.804137 -4.872522 0.000000
1549 1 -26.011599 -2.024783 0.000000
1550 1 -25.594884 -2.730815 0.000000
1551 1 -24.802346 0.116924 0.000000
1552 1 -24.385631 -0.589109 0.000000
1553 1 -23.593093 2.258630 0.000000
1554 1 -23.176377 1.552598 0.000000
1555 1 -22.383840 4.400337 0.000000
1556 1 -21.967124 3.694304 0.000000
1557 1 -21.174586 6.542043 0.000000
1558 1 -20.757871 5.836011 0.000000
1559 1 -19.965333 8.683750 0.000000
1560 1 -19.548618 7.977717 0.000000
1561 1 -18.756080 10.825456 0.000000
1562 1 -18.339365 10.119424 0.000000
1563 1 -17.546827 12.967163 0.000000
1564 1 -17.130112 12.261130 0.000000
1565 1 -16.337574 15.108869 0.000000
1566 1 -15.920858 14.402837 0.000000
1567 1 -15.128320 17.250576 0.000000
1568 1 -14.711605 16.544543 0.000000
1569 1 -13.919067 19.392282 0.000000
1570 1 -13.502352 18.686250 0.000000
1571 1 -12.709814 21.533989 0.000000
1572 1 -12.293099 20.827956 0.000000
1573 1 -11.500561 23.675695 0.000000
1574 1 -11.083846 22.969663 0.000000
1575 1 -10.291308 25.817402 0.000000
1576 1 -9.874592 25.111369 0.000000
1577 1 -9.082054 27.959108 0.000000
1578 1 -8.665339 27.253076 0.000000
1579 1 -7.872801 30.100815 0.000000
1580 1 -7.456086 29.394782 0.000000
1581 1 -6.663548 32.242521 0.000000
1582 1 -6.246833 31.536489 0.000000
1583 1 -5.454295 34.384228 0.000000
1584 1 -5.037580 33.678195 0.000000
1585 1 -4.245042 36.525934 0.000000
1586 1 -3.828326 35.819902 0.000000
1587 1 -3.035788 38.667641 0.000000
1588 1 -2.619073 37.961608 0.000000
1589 1 -1.826535 40.809347 0.000000
1590 1 -1.409820 40.103315 0.000000
1591 1 -0.617282 42.951053 0.000000
1592 1 -0.200567 42.245021 0.000000
1593 1 0.591971 45.092760 0.000000
1594 1 1.008686 44.386728 0.000000
1595 1 1.801224 47.234466 0.000000
1596 1 2.217940 46.528434 0.000000
1597 1 3.010478 49.376173 0.000000
1598 1 3.427193 48.670141 0.000000
1599 1 4.219731 51.517879 0.000000
1600 1 4.636446 50.811847 0.000000
1601 1 5.428984 53.659586 0.000000
1602 1 5.845699 52.953554 0.000000
1603 1 6.638237 55.801292 0.000000
1604 1 7.054952 55.095260 0.000000
1605 1 7.847490 57.942999 0.000000
1606 1 8.264206 57.236967 0.000000
1607 1 -52.574277 -53.402129 0.000000
1608 1 -52.157562 -54.108162 0.000000
1609 1 -51.365024 -51.260423 0.000000
1610 1 -50.948309 -51.966455 0.000000
1611 1 -50.155771 -49.118716 0.000000
1612 1 -49.739055 -49.824749 0.000000
1613 1 -48.946517 -46.977010 0.000000
1614 1 -48.529802 -47.683042 0.000000
1615 1 -47.737264 -44.835304 0.000000
1616 1 -47.320549 -45.541336 0.000000
1617 1 -46.528011 -42.693597 0.000000
1618 1 -46.111296 -43.399629 0.000000
1619 1 -45.318758 -40.551891 0.000000
1620 1 -44.902043 -41.257923 0.000000
1621 1 -44.109505 -38.410184 0.000000
1622 1 -43.692789 -39.116216 0.000000
1623 1 -42.900251 -36.268478 0.000000
1624 1 -42.483536 -36.974510 0.000000
1625 1 -41.690998 -34.126771 0.000000
1626 1 -41.274283 -34.832803 0.000000
1627 1 -40.481745 -31.985065 0.000000
1628 1 -40.065030 -32.691097 0.000000
1629 1 -39.272492 -29.843358 0.000000
1630 1 -38.855777 -30.549390 0.000000
1631 1 -38.063239 -27.701652 0.000000
1632 1 -37.646523 -28.407684 0.000000
1633 1 -36.853985 -25.559945 0.000000
1634 1 -36.437270 -26.265977 0.000000
1635 1 -35.644732 -23.418239 0.000000
1636 1 -35.228017 -24.124271 0.000000
1637 1 -34.435479 -21.276532 0.000000
1638 1 -34.018764 -21.982564 0.000000
1639 1 -33.226226 -19.134826 0.000000
1640 1 -32.809511 -19.840858 0.000000
1641 1 -32.016973 -16.993119 0.000000
1642 1 -31.600257 -17.699151 0.000000
1643 1 -30.807719 -14.851413 0.000000
1644 1 -30.391004 -15.557445 0.000000
1645 1 -29.598466 -12.709706 0.000000
1646 1 -29.181751 -13.415739 0.000000
1647 1 -28.389213 -10.568000 0.000000
1648 1 -27.972498 -11.274032 0.000000
1649 1 -27.179960 -8.426293 0.000000
1650 1 -26.763245 -9.132326 0.000000
1651 1 -25.970707 -6.284587 0.000000
1652 1 -25.553991 -6.990619 0.000000
1653 1 -24.761453 -4.142880 0.000000
1654 1 -24.344738 -4.848913 0.000000
1655 1 -23.552200 -2.001174 0.000000
1656 1 -23.135485 -2.707206 0.000000
1657 1 -22.342947 0.140533 0.000000
1658 1 -21.926232 -0.565500 0.000000
1659 1 -21.133694 2.282239 0.000000
1660 1 -20.716979 1.576207 0.000000
1661 1 -19.924441 4.423946 0.000000
1662 1 -19.507725 3.717913 0.000000
1663 1 -18.715187 6.565652 0.000000
1664 1 -18.298472 5.859620 0.000000
1665 1 -17.505934 8.707359 0.000000
1666 1 -17.089219 8.001326 0.000000
1667 1 -16.296681 10.849065 0.000000
1668 1 -15.879966 10.143033 0.000000
1669 1 -15.087428 12.990772 0.000000
1670 1 -14.670713 12.284739 0.000000
1671 1 -13.878175 15.132478 0.000000
1672 1 -13.461459 14.426446 0.000000
1673 1 -12.668921 17.274185 0.000000
1674 1 -12.252206 16.568152 0.000000
1675 1 -11.459668 19.415891 0.000000
1676 1 -11.042953 18.709859 0.000000
1677 1 -10.250415 21.557598 0.000000
1678 1 -9.833700 20.851565 0.000000
1679 1 -9.041162 23.699304 0.000000
1680 1 -8.624447 22.993272 0.000000
1681 1 -7.831909 25.841011 0.000000
1682 1 -7.415194 25.134978 0.000000
1683 1 -6.622656 27.982717 0.000000
1684 1 -6.205940 27.276685 0.000000
1685 1 -5.413402 30.124424 0.000000
1686 1 -4.996687 29.418391 0.000000
1687 1 -4.204149 32.266130 0.000000
1688 1 -3.787434 31.560098 0.000000
1689 1 -2.994896 34.407837 0.000000
1690 1 -2.578181 33.701804 0.000000
1691 1 -1.785643 36.549543 0.000000
1692 1 -1.368928 35.843511 0.000000
1693 1 -0.576390 38.691250 0.000000
1694 1 -0.159674 37.985217 0.000000
1695 1 0.632864 40.832956 0.000000
1696 1 1.049579 40.126924 0.000000
1697 1 1.842117 42.974663 0.000000
1698 1 2.258832 42.268630 0.000000
1699 1 3.051370 45.116369 0.000000
1700 1 3.468085 44.410337 0.000000
1701 1 4.260623 47.258076 0.000000
1702 1 4.677338 46.552043 0.000000
1703 1 5.469876 49.399782 0.000000
1704 1 5.886592 48.693750 0.000000
1705 1 6.679130 51.541489 0.000000
1706 1 7.095845 50.835456 0.000000
1707 1 7.888383 53.683195 0.000000
1708 1 8.305098 52.977163 0.000000
1709 1 9.097636 55.824902 0.000000
1710 1 9.514351 55.118869 0.000000
1711 1 10.306889 57.966608 0.000000
1712 1 10.723604 57.260576 0.000000
1713 1 -51.324131 -55.520227 0.000000
1714 1 -50.907416 -56.226259 0.000000
1715 1 -50.114878 -53.378520 0.000000
1716 1 -49.698163 -54.084553 0.000000
1717 1 -48.905625 -51.236814 0.000000
1718 1 -48.488910 -51.942846 0.000000
1719 1 -47.696372 -49.095107 0.000000
1720 1 -47.279657 -49.801140 0.000000
1721 1 -46.487119 -46.953401 0.000000
1722 1 -46.070403 -47.659433 0.000000
1723 1 -45.277865 -44.811694 0.000000
1724 1 -44.861150 -45.517727 0.000000
1725 1 -44.068612 -42.669988 0.000000
1726 1 -43.651897 -43.376020 0.000000
1727 1 -42.859359 -40.528281 0.000000
1728 1 -42.442644 -41.234314 0.000000
1729 1 -41.650106 -38.386575 0.000000
1730 1 -41.233391 -39.092607 0.000000
1731 1 -40.440853 -36.244868 0.000000
1732 1 -40.024137 -36.950901 0.000000
1733 1 -39.231599 -34.103162 0.000000
1734 1 -38.814884 -34.809194 0.000000
1735 1 -38.022346 -31.961455 0.000000
1736 1 -37.605631 -32.667488 0.000000
1737 1 -36.813093 -29.819749 0.000000
1738 1 -36.396378 -30.525781 0.000000
1739 1 -35.603840 -27.678042 0.000000
1740 1 -35.187125 -28.384075 0.000000
1741 1 -34.394587 -25.536336 0.000000
1742 1 -33.977871 -26.242368 0.000000
1743 1 -33.185333 -23.394629 0.000000
1744 1 -32.768618 -24.100662 0.000000
1745 1 -31.976080 -21.252923 0.000000
1746 1 -31.559365 -21.958955 0.000000
1747 1 -30.766827 -19.111216 0.000000
1748 1 -30.350112 -19.817249 0.000000
1749 1 -29.557574 -16.969510 0.000000
1750 1 -29.140859 -17.675542 0.000000
1751 1 -28.348321 -14.827803 0.000000
1752 1 -27.931605 -15.533836 0.000000
1753 1 -27.139067 -12.686097 0.000000
1754 1 -26.722352 -13.392129 0.000000
1755 1 -25.929814 -10.544390 0.000000
1756 1 -25.513099 -11.250423 0.000000
1757 1 -24.720561 -8.402684 0.000000
1758 1 -24.303846 -9.108716 0.000000
1759 1 -23.511308 -6.260977 0.000000
1760 1 -23.094593 -6.967010 0.000000
1761 1 -22.302055 -4.119271 0.000000
1762 1 -21.885339 -4.825303 0.000000
1763 1 -21.092801 -1.977564 0.000000
1764 1 -20.676086 -2.683597 0.000000
1765 1 -19.883548 0.164142 0.000000
1766 1 -19.466833 -0.541890 0.000000
1767 1 -18.674295 2.305849 0.000000
1768 1 -18.257580 1.599816 0.000000
1769 1 -17.465042 4.447555 0.000000
1770 1 -17.048327 3.741523 0.000000
1771 1 -16.255789 6.589262 0.000000
1772 1 -15.839073 5.883229 0.000000
1773 1 -15.046535 8.730968 0.000000
1774 1 -14.629820 8.024936 0.000000
1775 1 -13.837282 10.872675 0.000000
1776 1 -13.420567 10.166642 0.000000
1777 1 -12.628029 13.014381 0.000000
1778 1 -12.211314 12.308349 0.000000
1779 1 -11.418776 15.156088 0.000000
1780 1 -11.002061 14.450055 0.000000
1781 1 -10.209523 17.297794 0.000000
1782 1 -9.792807 16.591762 0.000000
1783 1 -9.000269 19.439501 0.000000
1784 1 -8.583554 18.733468 0.000000
1785 1 -7.791016 21.581207 0.000000
1786 1 -7.374301 20.875175 0.000000
1787 1 -6.581763 23.722914 0.000000
1788 1 -6.165048 23.016881 0.000000
1789 1 -5.372510 25.864620 0.000000
1790 1 -4.955795 25.158588 0.000000
1791 1 -4.163257 28.006327 0.000000
1792 1 -3.746541 27.300294 0.000000
1793 1 -2.954003 30.148033 0.000000
1794 1 -2.537288 29.442001 0.000000
1795 1 -1.744750 32.289740 0.000000
1796 1 -1.328035 31.583707 0.000000
1797 1 -0.535497 34.431446 0.000000
1798 1 -0.118782 33.725414 0.000000
1799 1 0.673756 36.573153 0.000000
1800 1 1.090471 35.867120 0.000000
1801 1 1.883009 38.714859 0.000000
1802 1 2.299725 38.008827 0.000000
1803 1 3.092262 40.856566 0.000000
1804 1 3.508978 40.150533 0.000000
1805 1 4.301516 42.998272 0.000000
1806 1 4.718231 42.292240 0.000000
1807 1 5.510769 45.139979 0.000000
1808 1 5.927484 44.433946 0.000000
1809 1 6.720022 47.281685 0.000000
1810 1 7.136737 46.575653 0.000000
1811 1 7.929275 49.423391 0.000000
1812 1 8.345990 48.717359 0.000000
1813 1 9.138528 51.565098 0.000000
1814 1 9.555244 50.859066 0.000000
1815 1 10.347782 53.706804 0.000000
1816 1 10.764497 53.000772 0.000000
1817 1 11.557035 55.848511 0.000000
1818 1 11.973750 55.142479 0.000000
1819 1 12.766288 57.990217 0.000000
1820 1 13.183003 57.284185 0.000000
1821 1 -50.073986 -57.638324 0.000000
1822 1 -49.657271 -58.344356 0.000000
1823 1 -48.864733 -55.496617 0.000000
1824 1 -48.448017 -56.202650 0.000000
1825 1 -47.655479 -53.354911 0.000000
1826 1 -47.238764 -54.060943 0.000000
1827 1 -46.446226 -51.213204 0.000000
1828 1 -46.029511 -51.919237 0.000000
1829 1 -45.236973 -49.071498 0.000000
1830 1 -44.820258 -49.777530 0.000000
1831 1 -44.027720 -46.929791 0.000000
1832 1 -43.611005 -47.635824 0.000000
1833 1 -42.818467 -44.788085 0.000000
1834 1 -42.401751 -45.494117 0.000000
1835 1 -41.609213 -42.646378 0.000000
1836 1 -41.192498 -43.352411 0.000000
1837 1 -40.399960 -40.504672 0.000000
1838 1 -39.983245 -41.210704 0.000000
1839 1 -39.190707 -38.362966 0.000000
1840 1 -38.773992 -39.068998 0.000000
1841 1 -37.981454 -36.221259 0.000000
1842 1 -37.564739 -36.927291 0.000000
1843 1 -36.772201 -34.079553 0.000000
1844 1 -36.355485 -34.785585 0.000000
1845 1 -35.562947 -31.937846 0.000000
1846 1 -35.146232 -32.643878 0.000000
1847 1 -34.353694 -29.796140 0.000000
1848 1 -33.936979 -30.502172 0.000000
1849 1 -33.144441 -27.654433 0.000000
1850 1 -32.727726 -28.360465 0.000000
1851 1 -31.935188 -25.512727 0.000000
1852 1 -31.518473 -26.218759 0.000000
1853 1 -30.725935 -23.371020 0.000000
1854 1 -30.309219 -24.077052 0.000000
1855 1 -29.516681 -21.229314 0.000000
1856 1 -29.099966 -21.935346 0.000000
1857 1 -28.307428 -19.087607 0.000000
1858 1 -27.890713 -19.793639 0.000000
1859 1 -27.098175 -16.945901 0.000000
1860 1 -26.681460 -17.651933 0.000000
1861 1 -25.888922 -14.804194 0.000000
1862 1 -25.472207 -15.510226 0.000000
1863 1 -24.679669 -12.662488 0.000000
1864 1 -24.262953 -13.368520 0.000000
1865 1 -23.470415 -10.520781 0.000000
1866 1 -23.053700 -11.226813 0.000000
1867 1 -22.261162 -8.379075 0.000000
1868 1 -21.844447 -9.085107 0.000000
1869 1 -21.051909 -6.237368 0.000000
1870 1 -20.635194 -6.943401 0.000000
1871 1 -19.842656 -4.095662 0.000000
1872 1 -19.425941 -4.801694 0.000000
1873 1 -18.633403 -1.953955 0.000000
1874 1 -18.216687 -2.659988 0.000000
1875 1 -17.424149 0.187751 0.000000
1876 1 -17.007434 -0.518281 0.000000
1877 1 -16.214896 2.329458 0.000000
1878 1 -15.798181 1.623425 0.000000
1879 1 -15.005643 4.471164 0.000000
1880 1 -14.588928 3.765132 0.000000
1881 1 -13.796390 6.612871 0.000000
1882 1 -13.379675 5.906838 0.000000
1883 1 -12.587137 8.754577 0.000000
1884 1 -12.170421 8.048545 0.000000
1885 1 -11.377883 10.896284 0.000000
1886 1 -10.961168 10.190251 0.000000
1887 1 -10.168630 13.037990 0.000000
1888 1 -9.751915 12.331958 0.000000
1889 1 -8.959377 15.179697 0.000000
1890 1 -8.542662 14.473664 0.000000
1891 1 -7.750124 17.321403 0.000000
1892 1 -7.333409 16.615371 0.000000
1893 1 -6.540871 19.463110 0.000000
1894 1 -6.124155 18.757077 0.000000
1895 1 -5.331617 21.604816 0.000000
1896 1 -4.914902 20.898784 0.000000
1897 1 -4.122364 23.746523 0.000000
1898 1 -3.705649 23.040490 0.000000
1899 1 -2.913111 25.888229 0.000000
1900 1 -2.496396 25.182197 0.000000
1901 1 -1.703858 28.029936 0.000000
1902 1 -1.287143 27.323903 0.000000
1903 1 -0.494605 30.171642 0.000000
1904 1 -0.077889 29.465610 0.000000
1905 1 0.714649 32.313349 0.000000
1906 1 1.131364 31.607316 0.000000
1907 1 1.923902 34.455055 0.000000
1908 1 2.340617 33.749023 0.000000
1909 1 3.133155 36.596762 0.000000
1910 1 3.549870 35.890729 0.000000
1911 1 4.342408 38.738468 0.000000
1912 1 4.759123 38.032436 0.000000
1913 1 5.551661 40.880175 0.000000
1914 1 5.968377 40.174142 0.000000
1915 1 6.760915 43.021881 0.000000
1916 1 7.177630 42.315849 0.000000
1917 1 7.970168 45.163588 0.000000
1918 1 8.386883 44.457555 0.000000
1919 1 9.179421 47.305294 0.000000
1920 1 9.596136 46.599262 0.000000
1921 1 10.388674 49.447001 0.000000
1922 1 10.805389 48.740968 0.000000
1923 1 11.597927 51.588707 0.000000
1924 1 12.014643 50.882675 0.000000
1925 1 12.807181 53.730414 0.000000
1926 1 13.223896 53.024381 0.000000
1927 1 14.016434 55.872120 0.000000
1928 1 14.433149 55.166088 0.000000
1929 1 15.225687 58.013827 0.000000
1930 1 15.642402 57.307794 0.000000
1931 1 -47.614587 -57.614715 0.000000
1932 1 -47.197872 -58.320747 0.000000
1933 1 -46.405334 -55.473008 0.000000
1934 1 -45.988618 -56.179041 0.000000
1935 1 -45.196080 -53.331302 0.000000
1936 1 -44.779365 -54.037334 0.000000
1937 1 -43.986827 -51.189595 0.000000
1938 1 -43.570112 -51.895628 0.000000
1939 1 -42.777574 -49.047889 0.000000
1940 1 -42.360859 -49.753921 0.000000
1941 1 -41.568321 -46.906182 0.000000
1942 1 -41.151606 -47.612215 0.000000
1943 1 -40.359068 -44.764476 0.000000
1944 1 -39.942353 -45.470508 0.000000
1945 1 -39.149815 -42.622769 0.000000
1946 1 -38.733099 -43.328802 0.000000
1947 1 -37.940561 -40.481063 0.000000
1948 1 -37.523846 -41.187095 0.000000
1949 1 -36.731308 -38.339356 0.000000
1950 1 -36.314593 -39.045389 0.000000
1951 1 -35.522055 -36.197650 0.000000
1952 1 -35.105340 -36.903682 0.000000
1953 1 -34.312802 -34.055943 0.000000
1954 1 -33.896087 -34.761976 0.000000
1955 1 -33.103549 -31.914237 0.000000
1956 1 -32.686833 -32.620269 0.000000
1957 1 -31.894295 -29.772530 0.000000
1958 1 -31.477580 -30.478563 0.000000
1959 1 -30.685042 -27.630824 0.000000
1960 1 -30.268327 -28.336856 0.000000
1961 1 -29.475789 -25.489117 0.000000
1962 1 -29.059074 -26.195150 0.000000
1963 1 -28.266536 -23.347411 0.000000
1964 1 -27.849821 -24.053443 0.000000
1965 1 -27.057283 -21.205704 0.000000
1966 1 -26.640567 -21.911737 0.000000
1967 1 -25.848029 -19.063998 0.000000
1968 1 -25.431314 -19.770030 0.000000
1969 1 -24.638776 -16.922291 0.000000
1970 1 -24.222061 -17.628324 0.000000
1971 1 -23.429523 -14.780585 0.000000
1972 1 -23.012808 -15.486617 0.000000
1973 1 -22.220270 -12.638878 0.000000
1974 1 -21.803555 -13.344911 0.000000
1975 1 -21.011017 -10.497172 0.000000
1976 1 -20.594301 -11.203204 0.000000
1977 1 -19.801763 -8.355465 0.000000
1978 1 -19.385048 -9.061498 0.000000
1979 1 -18.592510 -6.213759 0.000000
1980 1 -18.175795 -6.919791 0.000000
1981 1 -17.383257 -4.072052 0.000000
1982 1 -16.966542 -4.778085 0.000000
1983 1 -16.174004 -1.930346 0.000000
1984 1 -15.757289 -2.636378 0.000000
1985 1 -14.964751 0.211361 0.000000
1986 1 -14.548035 -0.494672 0.000000
1987 1 -13.755497 2.353067 0.000000
1988 1 -13.338782 1.647035 0.000000
1989 1 -12.546244 4.494774 0.000000
1990 1 -12.129529 3.788741 0.000000
1991 1 -11.336991 6.636480 0.000000
1992 1 -10.920276 5.930448 0.000000
1993 1 -10.127738 8.778187 0.000000
1994 1 -9.711023 8.072154 0.000000
1995 1 -8.918485 10.919893 0.000000
1996 1 -8.501769 10.213861 0.000000
1997 1 -7.709231 13.061600 0.000000
1998 1 -7.292516 12.355567 0.000000
1999 1 -6.499978 15.203306 0.000000
2000 1 -6.083263 14.497274 0.000000
2001 1 -5.290725 17.345013 0.000000
2002 1 -4.874010 16.638980 0.000000
2003 1 -4.081472 19.486719 0.000000
2004 1 -3.664757 18.780687 0.000000
2005 1 -2.872219 21.628426 0.000000
2006 1 -2.455503 20.922393 0.000000
2007 1 -1.662965 23.770132 0.000000
2008 1 -1.246250 23.064100 0.000000
2009 1 -0.453712 25.911839 0.000000
2010 1 -0.036997 25.205806 0.000000
2011 1 0.755541 28.053545 0.000000
2012 1 1.172256 27.347513 0.000000
2013 1 1.964794 30.195252 0.000000
2014 1 2.381509 29.489219 0.000000
2015 1 3.174047 32.336958 0.000000
2016 1 3.590763 31.630926 0.000000
2017 1 4.383301 34.478665 0.000000
2018 1 4.800016 33.772632 0.000000
2019 1 5.592554 36.620371 0.000000
2020 1 6.009269 35.914339 0.000000
2021 1 6.801807 38.762078 0.000000
2022 1 7.218522 38.056045 0.000000
2023 1 8.011060 40.903784 0.000000
2024 1 8.427775 40.197752 0.000000
2025 1 9.220313 43.045491 0.000000
2026 1 9.637029 42.339458 0.000000
2027 1 10.429567 45.187197 0.000000
2028 1 10.846282 44.481165 0.000000
2029 1 11.638820 47.328904 0.000000
2030 1 12.055535 46.622871 0.000000
2031 1 12.848073 49.470610 0.000000
2032 1 13.264788 48.764578 0.000000
2033 1 14.057326 51.612317 0.000000
2034 1 14.474041 50.906284 0.000000
2035 1 15.266579 53.754023 0.000000
2036 1 15.683295 53.047991 0.000000
2037 1 16.475833 55.895729 0.000000
2038 1 16.892548 55.189697 0.000000
2039 1 17.685086 58.037436 0.000000
2040 1 18.101801 57.331404 0.000000
2041 1 -45.155188 -57.591105 0.000000
2042 1 -44.738473 -58.297138 0.000000
2043 1 -43.945935 -55.449399 0.000000
2044 1 -43.529220 -56.155431 0.000000
2045 1 -42.736682 -53.307692 0.000000
2046 1 -42.319966 -54.013725 0.000000
2047 1 -41.527428 -51.165986 0.000000
2048 1 -41.110713 -51.872018 0.000000
2049 1 -40.318175 -49.024279 0.000000
2050 1 -39.901460 -49.730312 0.000000
2051 1 -39.108922 -46.882573 0.000000
2052 1 -38.692207 -47.588605 0.000000
2053 1 -37.899669 -44.740866 0.000000
2054 1 -37.482954 -45.446899 0.000000
2055 1 -36.690416 -42.599160 0.000000
2056 1 -36.273700 -43.305192 0.000000
2057 1 -35.481162 -40.457453 0.000000
2058 1 -35.064447 -41.163486 0.000000
2059 1 -34.271909 -38.315747 0.000000
2060 1 -33.855194 -39.021779 0.000000
2061 1 -33.062656 -36.174040 0.000000
2062 1 -32.645941 -36.880073 0.000000
2063 1 -31.853403 -34.032334 0.000000
2064 1 -31.436688 -34.738366 0.000000
2065 1 -30.644150 -31.890628 0.000000
2066 1 -30.227434 -32.596660 0.000000
2067 1 -29.434897 -29.748921 0.000000
2068 1 -29.018181 -30.454953 0.000000
2069 1 -28.225643 -27.607215 0.000000
2070 1 -27.808928 -28.313247 0.000000
2071 1 -27.016390 -25.465508 0.000000
2072 1 -26.599675 -26.171540 0.000000
2073 1 -25.807137 -23.323802 0.000000
2074 1 -25.390422 -24.029834 0.000000
2075 1 -24.597884 -21.182095 0.000000
2076 1 -24.181169 -21.888127 0.000000
2077 1 -23.388631 -19.040389 0.000000
2078 1 -22.971915 -19.746421 0.000000
2079 1 -22.179377 -16.898682 0.000000
2080 1 -21.762662 -17.604714 0.000000
2081 1 -20.970124 -14.756976 0.000000
2082 1 -20.553409 -15.463008 0.000000
2083 1 -19.760871 -12.615269 0.000000
2084 1 -19.344156 -13.321301 0.000000
2085 1 -18.551618 -10.473563 0.000000
2086 1 -18.134903 -11.179595 0.000000
2087 1 -17.342365 -8.331856 0.000000
2088 1 -16.925649 -9.037888 0.000000
2089 1 -16.133111 -6.190150 0.000000
2090 1 -15.716396 -6.896182 0.000000
2091 1 -14.923858 -4.048443 0.000000
2092 1 -14.507143 -4.754475 0.000000
2093 1 -13.714605 -1.906737 0.000000
2094 1 -13.297890 -2.612769 0.000000
2095 1 -12.505352 0.234970 0.000000
2096 1 -12.088637 -0.471063 0.000000
2097 1 -11.296099 2.376676 0.000000
2098 1 -10.879383 1.670644 0.000000
2099 1 -10.086845 4.518383 0.000000
2100 1 -9.670130 3.812350 0.000000
2101 1 -8.877592 6.660089 0.000000
2102 1 -8.460877 5.954057 0.000000
2103 1 -7.668339 8.801796 0.000000
2104 1 -7.251624 8.095763 0.000000
2105 1 -6.459086 10.943502 0.000000
2106 1 -6.042371 10.237470 0.000000
2107 1 -5.249833 13.085209 0.000000
2108 1 -4.833117 12.379176 0.000000
2109 1 -4.040579 15.226915 0.000000
2110 1 -3.623864 14.520883 0.000000
2111 1 -2.831326 17.368622 0.000000
2112 1 -2.414611 16.662589 0.000000
2113 1 -1.622073 19.510328 0.000000
2114 1 -1.205358 18.804296 0.000000
2115 1 -0.412820 21.652035 0.000000
2116 1 0.003895 20.946002 0.000000
2117 1 0.796433 23.793741 0.000000
2118 1 1.213149 23.087709 0.000000
2119 1 2.005687 25.935448 0.000000
2120 1 2.422402 25.229415 0.000000
2121 1 3.214940 28.077154 0.000000
2122 1 3.631655 27.371122 0.000000
2123 1 4.424193 30.218861 0.000000
2124 1 4.840908 29.512828 0.000000
2125 1 5.633446 32.360567 0.000000
2126 1 6.050161 31.654535 0.000000
2127 1 6.842699 34.502274 0.000000
2128 1 7.259415 33.796241 0.000000
2129 1 8.051953 36.643980 0.000000
2130 1 8.468668 35.937948 0.000000
2131 1 9.261206 38.785687 0.000000
2132 1 9.677921 38.079654 0.000000
2133 1 10.470459 40.927393 0.000000
2134 1 10.887174 40.221361 0.000000
2135 1 11.679712 43.069100 0.000000
2136 1 12.096427 42.363067 0.000000
2137 1 12.888965 45.210806 0.000000
2138 1 13.305681 44.504774 0.000000
2139 1 14.098219 47.352513 0.000000
2140 1 14.514934 46.646480 0.000000
2141 1 15.307472 49.494219 0.000000
2142 1 15.724187 48.788187 0.000000
2143 1 16.516725 51.635926 0.000000
2144 1 16.933440 50.929893 0.000000
2145 1 17.725978 53.777632 0.000000
2146 1 18.142693 53.071600 0.000000
2147 1 18.935231 55.919339 0.000000
2148 1 19.351947 55.213306 0.000000
2149 1 20.144485 58.061045 0.000000
2150 1 20.561200 57.355013 0.000000
2151 1 -42.695789 -57.567496 0.000000
2152 1 -42.279074 -58.273529 0.000000
2153 1 -41.486536 -55.425790 0.000000
2154 1 -41.069821 -56.131822 0.000000
2155 1 -40.277283 -53.284083 0.000000
2156 1 -39.860568 -53.990116 0.000000
2157 1 -39.068030 -51.142377 0.000000
2158 1 -38.651314 -51.848409 0.000000
2159 1 -37.858776 -49.000670 0.000000
2160 1 -37.442061 -49.706703 0.000000
2161 1 -36.649523 -46.858964 0.000000
2162 1 -36.232808 -47.564996 0.000000
2163 1 -35.440270 -44.717257 0.000000
2164 1 -35.023555 -45.423290 0.000000
2165 1 -34.231017 -42.575551 0.000000
2166 1 -33.814302 -43.281583 0.000000
2167 1 -33.021764 -40.433844 0.000000
2168 1 -32.605048 -41.139877 0.000000
2169 1 -31.812510 -38.292138 0.000000
2170 1 -31.395795 -38.998170 0.000000
2171 1 -30.603257 -36.150431 0.000000
2172 1 -30.186542 -36.856464 0.000000
2173 1 -29.394004 -34.008725 0.000000
2174 1 -28.977289 -34.714757 0.000000
2175 1 -28.184751 -31.867018 0.000000
2176 1 -27.768036 -32.573051 0.000000
2177 1 -26.975498 -29.725312 0.000000
2178 1 -26.558782 -30.431344 0.000000
2179 1 -25.766244 -27.583605 0.000000
2180 1 -25.349529 -28.289638 0.000000
2181 1 -24.556991 -25.441899 0.000000
2182 1 -24.140276 -26.147931 0.000000
2183 1 -23.347738 -23.300192 0.000000
2184 1 -22.931023 -24.006225 0.000000
2185 1 -22.138485 -21.158486 0.000000
2186 1 -21.721770 -21.864518 0.000000
2187 1 -20.929232 -19.016779 0.000000
2188 1 -20.512516 -19.722812 0.000000
2189 1 -19.719978 -16.875073 0.000000
2190 1 -19.303263 -17.581105 0.000000
2191 1 -18.510725 -14.733366 0.000000
2192 1 -18.094010 -15.439399 0.000000
2193 1 -17.301472 -12.591660 0.000000
2194 1 -16.884757 -13.297692 0.000000
2195 1 -16.092219 -10.449953 0.000000
2196 1 -15.675504 -11.155986 0.000000
2197 1 -14.882966 -8.308247 0.000000
2198 1 -14.466250 -9.014279 0.000000
2199 1 -13.673713 -6.166540 0.000000
2200 1 -13.256997 -6.872573 0.000000
2201 1 -12.464459 -4.024834 0.000000
2202 1 -12.047744 -4.730866 0.000000
2203 1 -11.255206 -1.883127 0.000000
2204 1 -10.838491 -2.589160 0.000000
2205 1 -10.045953 0.258579 0.000000
2206 1 -9.629238 -0.447453 0.000000
2207 1 -8.836700 2.400286 0.000000
2208 1 -8.419985 1.694253 0.000000
2209 1 -7.627447 4.541992 0.000000
2210 1 -7.210731 3.835960 0.000000
2211 1 -6.418193 6.683699 0.000000
2212 1 -6.001478 5.977666 0.000000
2213 1 -5.208940 8.825405 0.000000
2214 1 -4.792225 8.119373 0.000000
2215 1 -3.999687 10.967112 0.000000
2216 1 -3.582972 10.261079 0.000000
2217 1 -2.790434 13.108818 0.000000
2218 1 -2.373719 12.402786 0.000000
2219 1 -1.581181 15.250525 0.000000
2220 1 -1.164465 14.544492 0.000000
2221 1 -0.371927 17.392231 0.000000
2222 1 0.044788 16.686199 0.000000
2223 1 0.837326 19.533938 0.000000
2224 1 1.254041 18.827905 0.000000
2225 1 2.046579 21.675644 0.000000
2226 1 2.463294 20.969612 0.000000
2227 1 3.255832 23.817351 0.000000
2228 1 3.672547 23.111318 0.000000
2229 1 4.465085 25.959057 0.000000
2230 1 4.881801 25.253025 0.000000
2231 1 5.674339 28.100764 0.000000
2232 1 6.091054 27.394731 0.000000
2233 1 6.883592 30.242470 0.000000
2234 1 7.300307 29.536438 0.000000
2235 1 8.092845 32.384177 0.000000
2236 1 8.509560 31.678144 0.000000
2237 1 9.302098 34.525883 0.000000
2238 1 9.718813 33.819851 0.000000
2239 1 10.511351 36.667590 0.000000
2240 1 10.928067 35.961557 0.000000
2241 1 11.720605 38.809296 0.000000
2242 1 12.137320 38.103264 0.000000
2243 1 12.929858 40.951003 0.000000
2244 1 13.346573 40.244970 0.000000
2245 1 14.139111 43.092709 0.000000
2246 1 14.555826 42.386677 0.000000
2247 1 15.348364 45.234416 0.000000
2248 1 15.765079 44.528383 0.000000
2249 1 16.557617 47.376122 0.000000
2250 1 16.974333 46.670090 0.000000
2251 1 17.766871 49.517829 0.000000
2252 1 18.183586 48.811796 0.000000
2253 1 18.976124 51.659535 0.000000
2254 1 19.392839 50.953503 0.000000
2255 1 20.185377 53.801242 0.000000
2256 1 20.602092 53.095209 0.000000
2257 1 21.394630 55.942948 0.000000
2258 1 21.811345 55.236916 0.000000
2259 1 22.603883 58.084655 0.000000
2260 1 23.020599 57.378622 0.000000
2261 1 -40.236390 -57.543887 0.000000
2262 1 -39.819675 -58.249919 0.000000
2263 1 -39.027137 -55.402180 0.000000
2264 1 -38.610422 -56.108213 0.000000
2265 1 -37.817884 -53.260474 0.000000
2266 1 -37.401169 -53.966506 0.000000
2267 1 -36.608631 -51.118767 0.000000
2268 1 -36.191916 -51.824800 0.000000
2269 1 -35.399378 -48.977061 0.000000
2270 1 -34.982662 -49.683093 0.000000
2271 1 -34.190124 -46.835354 0.000000
2272 1 -33.773409 -47.541387 0.000000
2273 1 -32.980871 -44.693648 0.000000
2274 1 -32.564156 -45.399680 0.000000
2275 1 -31.771618 -42.551941 0.000000
2276 1 -31.354903 -43.257974 0.000000
2277 1 -30.562365 -40.410235 0.000000
2278 1 -30.145650 -41.116267 0.000000
2279 1 -29.353112 -38.268528 0.000000
2280 1 -28.936396 -38.974561 0.000000
2281 1 -28.143858 -36.126822 0.000000
2282 1 -27.727143 -36.832854 0.000000
2283 1 -26.934605 -33.985115 0.000000
2284 1 -26.517890 -34.691148 0.000000
2285 1 -25.725352 -31.843409 0.000000
2286 1 -25.308637 -32.549441 0.000000
2287 1 -24.516099 -29.701702 0.000000
2288 1 -24.099384 -30.407735 0.000000
2289 1 -23.306846 -27.559996 0.000000
2290 1 -22.890130 -28.266028 0.000000
2291 1 -22.097592 -25.418289 0.000000
2292 1 -21.680877 -26.124322 0.000000
2293 1 -20.888339 -23.276583 0.000000
2294 1 -20.471624 -23.982615 0.000000
2295 1 -19.679086 -21.134877 0.000000
2296 1 -19.262371 -21.840909 0.000000
2297 1 -18.469833 -18.993170 0.000000
2298 1 -18.053118 -19.699202 0.000000
2299 1 -17.260580 -16.851464 0.000000
2300 1 -16.843864 -17.557496 0.000000
2301 1 -16.051326 -14.709757 0.000000
2302 1 -15.634611 -15.415789 0.000000
2303 1 -14.842073 -12.568051 0.000000
2304 1 -14.425358 -13.274083 0.000000
2305 1 -13.632820 -10.426344 0.000000
2306 1 -13.216105 -11.132376 0.000000
2307 1 -12.423567 -8.284638 0.000000
2308 1 -12.006852 -8.990670 0.000000
2309 1 -11.214314 -6.142931 0.000000
2310 1 -10.797598 -6.848963 0.000000
2311 1 -10.005060 -4.001225 0.000000
2312 1 -9.588345 -4.707257 0.000000
2313 1 -8.795807 -1.859518 0.000000
2314 1 -8.379092 -2.565550 0.000000
2315 1 -7.586554 0.282188 0.000000
2316 1 -7.169839 -0.423844 0.000000
2317 1 -6.377301 2.423895 0.000000
2318 1 -5.960586 1.717863 0.000000
2319 1 -5.168048 4.565601 0.000000
2320 1 -4.751332 3.859569 0.000000
2321 1 -3.958795 6.707308 0.000000
2322 1 -3.542079 6.001275 0.000000
2323 1 -2.749541 8.849014 0.000000
2324 1 -2.332826 8.142982 0.000000
2325 1 -1.540288 10.990721 0.000000
2326 1 -1.123573 10.284688 0.000000
2327 1 -0.331035 13.132427 0.000000
2328 1 0.085680 12.426395 0.000000
2329 1 0.878218 15.274134 0.000000
2330 1 1.294933 14.568101 0.000000
2331 1 2.087471 17.415840 0.000000
2332 1 2.504187 16.709808 0.000000
2333 1 3.296725 19.557547 0.000000
2334 1 3.713440 18.851514 0.000000
2335 1 4.505978 21.699253 0.000000
2336 1 4.922693 20.993221 0.000000
2337 1 5.715231 23.840960 0.000000
2338 1 6.131946 23.134927 0.000000
2339 1 6.924484 25.982666 0.000000
2340 1 7.341199 25.276634 0.000000
2341 1 8.133737 28.124373 0.000000
2342 1 8.550453 27.418340 0.000000
2343 1 9.342991 30.266079 0.000000
2344 1 9.759706 29.560047 0.000000
2345 1 10.552244 32.407786 0.000000
2346 1 10.968959 31.701753 0.000000
2347 1 11.761497 34.549492 0.000000
2348 1 12.178212 33.843460 0.000000
2349 1 12.970750 36.691199 0.000000
2350 1 13.387465 35.985166 0.000000
2351 1 14.180003 38.832905 0.000000
2352 1 14.596719 38.126873 0.000000
2353 1 15.389257 40.974612 0.000000
2354 1 15.805972 40.268579 0.000000
2355 1 16.598510 43.116318 0.000000
2356 1 17.015225 42.410286 0.000000
2357 1 17.807763 45.258025 0.000000
2358 1 18.224478 44.551992 0.000000
2359 1 19.017016 47.399731 0.000000
2360 1 19.433731 46.693699 0.000000
2361 1 20.226269 49.541438 0.000000
2362 1 20.642985 48.835405 0.000000
2363 1 21.435523 51.683144 0.000000
2364 1 21.852238 50.977112 0.000000
2365 1 22.644776 53.824851 0.000000
2366 1 23.061491 53.118818 0.000000
2367 1 23.854029 55.966557 0.000000
2368 1 24.270744 55.260525 0.000000
2369 1 25.063282 58.108264 0.000000
2370 1 25.479997 57.402231 0.000000
2371 1 -37.776992 -57.520278 0.000000
2372 1 -37.360276 -58.226310 0.000000
2373 1 -36.567738 -55.378571 0.000000
2374 1 -36.151023 -56.084604 0.000000
2375 1 -35.358485 -53.236865 0.000000
2376 1 -34.941770 -53.942897 0.000000
2377 1 -34.149232 -51.095158 0.000000
2378 1 -33.732517 -51.801191 0.000000
2379 1 -32.939979 -48.953452 0.000000
2380 1 -32.523264 -49.659484 0.000000
2381 1 -31.730726 -46.811745 0.000000
2382 1 -31.314010 -47.517778 0.000000
2383 1 -30.521472 -44.670039 0.000000
2384 1 -30.104757 -45.376071 0.000000
2385 1 -29.312219 -42.528332 0.000000
2386 1 -28.895504 -43.234365 0.000000
2387 1 -28.102966 -40.386626 0.000000
2388 1 -27.686251 -41.092658 0.000000
2389 1 -26.893713 -38.244919 0.000000
2390 1 -26.476998 -38.950952 0.000000
2391 1 -25.684460 -36.103213 0.000000
2392 1 -25.267744 -36.809245 0.000000
2393 1 -24.475206 -33.961506 0.000000
2394 1 -24.058491 -34.667539 0.000000
2395 1 -23.265953 -31.819800 0.000000
2396 1 -22.849238 -32.525832 0.000000
2397 1 -22.056700 -29.678093 0.000000
2398 1 -21.639985 -30.384126 0.000000
2399 1 -20.847447 -27.536387 0.000000
2400 1 -20.430732 -28.242419 0.000000
2401 1 -19.638194 -25.394680 0.000000
2402 1 -19.221478 -26.100713 0.000000
2403 1 -18.428940 -23.252974 0.000000
2404 1 -18.012225 -23.959006 0.000000
2405 1 -17.219687 -21.111267 0.000000
2406 1 -16.802972 -21.817300 0.000000
2407 1 -16.010434 -18.969561 0.000000
2408 1 -15.593719 -19.675593 0.000000
2409 1 -14.801181 -16.827854 0.000000
2410 1 -14.384466 -17.533887 0.000000
2411 1 -13.591928 -14.686148 0.000000
2412 1 -13.175212 -15.392180 0.000000
2413 1 -12.382674 -12.544441 0.000000
2414 1 -11.965959 -13.250474 0.000000
2415 1 -11.173421 -10.402735 0.000000
2416 1 -10.756706 -11.108767 0.000000
2417 1 -9.964168 -8.261028 0.000000
2418 1 -9.547453 -8.967061 0.000000
2419 1 -8.754915 -6.119322 0.000000
2420 1 -8.338200 -6.825354 0.000000
2421 1 -7.545662 -3.977615 0.000000
2422 1 -7.128946 -4.683648 0.000000
2423 1 -6.336408 -1.835909 0.000000
2424 1 -5.919693 -2.541941 0.000000
2425 1 -5.127155 0.305798 0.000000
2426 1 -4.710440 -0.400235 0.000000
2427 1 -3.917902 2.447504 0.000000
2428 1 -3.501187 1.741472 0.000000
2429 1 -2.708649 4.589211 0.000000
2430 1 -2.291934 3.883178 0.000000
2431 1 -1.499396 6.730917 0.000000
2432 1 -1.082680 6.024885 0.000000
2433 1 -0.290142 8.872624 0.000000
2434 1 0.126573 8.166591 0.000000
2435 1 0.919111 11.014330 0.000000
2436 1 1.335826 10.308298 0.000000
2437 1 2.128364 13.156037 0.000000
2438 1 2.545079 12.450004 0.000000
2439 1 3.337617 15.297743 0.000000
2440 1 3.754332 14.591711 0.000000
2441 1 4.546870 17.439450 0.000000
2442 1 4.963586 16.733417 0.000000
2443 1 5.756124 19.581156 0.000000
2444 1 6.172839 18.875124 0.000000
2445 1 6.965377 21.722863 0.000000
2446 1 7.382092 21.016830 0.000000
2447 1 8.174630 23.864569 0.000000
2448 1 8.591345 23.158537 0.000000
2449 1 9.383883 26.006276 0.000000
2450 1 9.800598 25.300243 0.000000
2451 1 10.593136 28.147982 0.000000
2452 1 11.009852 27.441950 0.000000
2453 1 11.802389 30.289689 0.000000
2454 1 12.219105 29.583656 0.000000
2455 1 13.011643 32.431395 0.000000
2456 1 13.428358 31.725363 0.000000
2457 1 14.220896 34.573102 0.000000
2458 1 14.637611 33.867069 0.000000
2459 1 15.430149 36.714808 0.000000
2460 1 15.846864 36.008776 0.000000
2461 1 16.639402 38.856515 0.000000
2462 1 17.056117 38.150482 0.000000
2463 1 17.848655 40.998221 0.000000
2464 1 18.265371 40.292189 0.000000
2465 1 19.057909 43.139928 0.000000
2466 1 19.474624 42.433895 0.000000
2467 1 20.267162 45.281634 0.000000
2468 1 20.683877 44.575602 0.000000
2469 1 21.476415 47.423341 0.000000
2470 1 21.893130 46.717308 0.000000
2471 1 22.685668 49.565047 0.000000
2472 1 23.102383 48.859015 0.000000
2473 1 23.894921 51.706754 0.000000
2474 1 24.311637 51.000721 0.000000
2475 1 25.104175 53.848460 0.000000
2476 1 25.520890 53.142428 0.000000
2477 1 26.313428 55.990167 0.000000
2478 1 26.730143 55.284134 0.000000
2479 1 27.522681 58.131873 0.000000
2480 1 27.939396 57.425841 0.000000
2481 1 -35.317593 -57.496668 0.000000
2482 1 -34.900878 -58.202701 0.000000
2483 1 -34.108340 -55.354962 0.000000
2484 1 -33.691624 -56.060994 0.000000
2485 1 -32.899086 -53.213255 0.000000
2486 1 -32.482371 -53.919288 0.000000
2487 1 -31.689833 -51.071549 0.000000
2488 1 -31.273118 -51.777581 0.000000
2489 1 -30.480580 -48.929842 0.000000
2490 1 -30.063865 -49.635875 0.000000
2491 1 -29.271327 -46.788136 0.000000
2492 1 -28.854612 -47.494168 0.000000
2493 1 -28.062074 -44.646429 0.000000
2494 1 -27.645358 -45.352462 0.000000
2495 1 -26.852820 -42.504723 0.000000
2496 1 -26.436105 -43.210755 0.000000
2497 1 -25.643567 -40.363016 0.000000
2498 1 -25.226852 -41.069049 0.000000
2499 1 -24.434314 -38.221310 0.000000
2500 1 -24.017599 -38.927342 0.000000
2501 1 -23.225061 -36.079603 0.000000
2502 1 -22.808346 -36.785636 0.000000
2503 1 -22.015808 -33.937897 0.000000
2504 1 -21.599092 -34.643929 0.000000
2505 1 -20.806554 -31.796190 0.000000
2506 1 -20.389839 -32.502223 0.000000
2507 1 -19.597301 -29.654484 0.000000
2508 1 -19.180586 -30.360516 0.000000
2509 1 -18.388048 -27.512777 0.000000
2510 1 -17.971333 -28.218810 0.000000
2511 1 -17.178795 -25.371071 0.000000
2512 1 -16.762080 -26.077103 0.000000
2513 1 -15.969542 -23.229364 0.000000
2514 1 -15.552826 -23.935397 0.000000
2515 1 -14.760288 -21.087658 0.000000
2516 1 -14.343573 -21.793690 0.000000
2517 1 -13.551035 -18.945951 0.000000
2518 1 -13.134320 -19.651984 0.000000
2519 1 -12.341782 -16.804245 0.000000
2520 1 -11.925067 -17.510277 0.000000
2521 1 -11.132529 -14.662539 0.000000
2522 1 -10.715814 -15.368571 0.000000
2523 1 -9.923276 -12.520832 0.000000
2524 1 -9.506560 -13.226864 0.000000
2525 1 -8.714022 -10.379126 0.000000
2526 1 -8.297307 -11.085158 0.000000
2527 1 -7.504769 -8.237419 0.000000
2528 1 -7.088054 -8.943451 0.000000
2529 1 -6.295516 -6.095713 0.000000
2530 1 -5.878801 -6.801745 0.000000
2531 1 -5.086263 -3.954006 0.000000
2532 1 -4.669548 -4.660038 0.000000
2533 1 -3.877010 -1.812300 0.000000
2534 1 -3.460294 -2.518332 0.000000
2535 1 -2.667756 0.329407 0.000000
2536 1 -2.251041 -0.376625 0.000000
2537 1 -1.458503 2.471113 0.000000
2538 1 -1.041788 1.765081 0.000000
2539 1 -0.249250 4.612820 0.000000
2540 1 0.167465 3.906788 0.000000
2541 1 0.960003 6.754526 0.000000
2542 1 1.376718 6.048494 0.000000
2543 1 2.169256 8.896233 0.000000
2544 1 2.585972 8.190201 0.000000
2545 1 3.378510 11.037939 0.000000
2546 1 3.795225 10.331907 0.000000
2547 1 4.587763 13.179646 0.000000
2548 1 5.004478 12.473613 0.000000
2549 1 5.797016 15.321352 0.000000
2550 1 6.213731 14.615320 0.000000
2551 1 7.006269 17.463059 0.000000
2552 1 7.422984 16.757026 0.000000
2553 1 8.215522 19.604765 0.000000
2554 1 8.632238 18.898733 0.000000
2555 1 9.424776 21.746472 0.000000
2556 1 9.841491 21.040439 0.000000
2557 1 10.634029 23.888178 0.000000
2558 1 11.050744 23.182146 0.000000
2559 1 11.843282 26.029885 0.000000
2560 1 12.259997 25.323852 0.000000
2561 1 13.052535 28.171591 0.000000
2562 1 13.469250 27.465559 0.000000
2563 1 14.261788 30.313298 0.000000
2564 1 14.678504 29.607265 0.000000
2565 1 15.471042 32.455004 0.000000
2566 1 15.887757 31.748972 0.000000
2567 1 16.680295 34.596711 0.000000
2568 1 17.097010 33.890678 0.000000
2569 1 17.889548 36.738417 0.000000
2570 1 18.306263 36.032385 0.000000
2571 1 19.098801 38.880124 0.000000
2572 1 19.515516 38.174091 0.000000
2573 1 20.308054 41.021830 0.000000
2574 1 20.724770 40.315798 0.000000
2575 1 21.517307 43.163537 0.000000
2576 1 21.934023 42.457504 0.000000
2577 1 22.726561 45.305243 0.000000
2578 1 23.143276 44.599211 0.000000
2579 1 23.935814 47.446950 0.000000
2580 1 24.352529 46.740917 0.000000
2581 1 25.145067 49.588656 0.000000
2582 1 25.561782 48.882624 0.000000
2583 1 26.354320 51.730363 0.000000
2584 1 26.771035 51.024330 0.000000
2585 1 27.563573 53.872069 0.000000
2586 1 27.980289 53.166037 0.000000
2587 1 28.772827 56.013776 0.000000
2588 1 29.189542 55.307743 0.000000
2589 1 29.982080 58.155482 0.000000
2590 1 30.398795 57.449450 0.000000
2591 1 -32.858194 -57.473059 0.000000
2592 1 -32.441479 -58.179092 0.000000
2593 1 -31.648941 -55.331353 0.000000
2594 1 -31.232226 -56.037385 0.000000
2595 1 -30.439688 -53.189646 0.000000
2596 1 -30.022972 -53.895679 0.000000
2597 1 -29.230434 -51.047940 0.000000
2598 1 -28.813719 -51.753972 0.000000
2599 1 -28.021181 -48.906233 0.000000
2600 1 -27.604466 -49.612266 0.000000
2601 1 -26.811928 -46.764527 0.000000
2602 1 -26.395213 -47.470559 0.000000
2603 1 -25.602675 -44.622820 0.000000
2604 1 -25.185960 -45.328853 0.000000
2605 1 -24.393422 -42.481114 0.000000
2606 1 -23.976706 -43.187146 0.000000
2607 1 -23.184168 -40.339407 0.000000
2608 1 -22.767453 -41.045440 0.000000
2609 1 -21.974915 -38.197701 0.000000
2610 1 -21.558200 -38.903733 0.000000
2611 1 -20.765662 -36.055994 0.000000
2612 1 -20.348947 -36.762027 0.000000
2613 1 -19.556409 -33.914288 0.000000
2614 1 -19.139694 -34.620320 0.000000
2615 1 -18.347156 -31.772581 0.000000
2616 1 -17.930440 -32.478614 0.000000
2617 1 -17.137902 -29.630875 0.000000
2618 1 -16.721187 -30.336907 0.000000
2619 1 -15.928649 -27.489168 0.000000
2620 1 -15.511934 -28.195201 0.000000
2621 1 -14.719396 -25.347462 0.000000
2622 1 -14.302681 -26.053494 0.000000
2623 1 -13.510143 -23.205755 0.000000
2624 1 -13.093428 -23.911788 0.000000
2625 1 -12.300890 -21.064049 0.000000
2626 1 -11.884174 -21.770081 0.000000
2627 1 -11.091636 -18.922342 0.000000
2628 1 -10.674921 -19.628375 0.000000
2629 1 -9.882383 -16.780636 0.000000
2630 1 -9.465668 -17.486668 0.000000
2631 1 -8.673130 -14.638929 0.000000
2632 1 -8.256415 -15.344962 0.000000
2633 1 -7.463877 -12.497223 0.000000
2634 1 -7.047162 -13.203255 0.000000
2635 1 -6.254624 -10.355516 0.000000
2636 1 -5.837908 -11.061549 0.000000
2637 1 -5.045370 -8.213810 0.000000
2638 1 -4.628655 -8.919842 0.000000
2639 1 -3.836117 -6.072103 0.000000
2640 1 -3.419402 -6.778136 0.000000
2641 1 -2.626864 -3.930397 0.000000
2642 1 -2.210149 -4.636429 0.000000
2643 1 -1.417611 -1.788690 0.000000
2644 1 -1.000896 -2.494723 0.000000
2645 1 -0.208358 0.353016 0.000000
2646 1 0.208358 -0.353016 0.000000
2647 1 1.000896 2.494723 0.000000
2648 1 1.417611 1.788690 0.000000
2649 1 2.210149 4.636429 0.000000
2650 1 2.626864 3.930397 0.000000
2651 1 3.419402 6.778136 0.000000
2652 1 3.836117 6.072103 0.000000
2653 1 4.628655 8.919842 0.000000
2654 1 5.045370 8.213810 0.000000
2655 1 5.837908 11.061549 0.000000
2656 1 6.254624 10.355516 0.000000
2657 1 7.047162 13.203255 0.000000
2658 1 7.463877 12.497223 0.000000
2659 1 8.256415 15.344962 0.000000
2660 1 8.673130 14.638929 0.000000
2661 1 9.465668 17.486668 0.000000
2662 1 9.882383 16.780636 0.000000
2663 1 10.674921 19.628375 0.000000
2664 1 11.091636 18.922342 0.000000
2665 1 11.884174 21.770081 0.000000
2666 1 12.300890 21.064049 0.000000
2667 1 13.093428 23.911788 0.000000
2668 1 13.510143 23.205755 0.000000
2669 1 14.302681 26.053494 0.000000
2670 1 14.719396 25.347462 0.000000
2671 1 15.511934 28.195201 0.000000
2672 1 15.928649 27.489168 0.000000
2673 1 16.721187 30.336907 0.000000
2674 1 17.137902 29.630875 0.000000
2675 1 17.930440 32.478614 0.000000
2676 1 18.347156 31.772581 0.000000
2677 1 19.139694 34.620320 0.000000
2678 1 19.556409 33.914288 0.000000
2679 1 20.348947 36.762027 0.000000
2680 1 20.765662 36.055994 0.000000
2681 1 21.558200 38.903733 0.000000
2682 1 21.974915 38.197701 0.000000
2683 1 22.767453 41.045440 0.000000
2684 1 23.184168 40.339407 0.000000
2685 1 23.976706 43.187146 0.000000
2686 1 24.393422 42.481114 0.000000
2687 1 25.185960 45.328853 0.000000
2688 1 25.602675 44.622820 0.000000
2689 1 26.395213 47.470559 0.000000
2690 1 26.811928 46.764527 0.000000
2691 1 27.604466 49.612266 0.000000
2692 1 28.021181 48.906233 0.000000
2693 1 28.813719 51.753972 0.000000
2694 1 29.230434 51.047940 0.000000
2695 1 30.022972 53.895679 0.000000
2696 1 30.439688 53.189646 0.000000
2697 1 31.232226 56.037385 0.000000
2698 1 31.648941 55.331353 0.000000
2699 1 32.441479 58.179092 0.000000
2700 1 32.858194 57.473059 0.000000
2701 1 -30.398795 -57.449450 0.000000
2702 1 -29.982080 -58.155482 0.000000
2703 1 -29.189542 -55.307743 0.000000
2704 1 -28.772827 -56.013776 0.000000
2705 1 -27.980289 -53.166037 0.000000
2706 1 -27.563573 -53.872069 0.000000
2707 1 -26.771035 -51.024330 0.000000
2708 1 -26.354320 -51.730363 0.000000
2709 1 -25.561782 -48.882624 0.000000
2710 1 -25.145067 -49.588656 0.000000
2711 1 -24.352529 -46.740917 0.000000
2712 1 -23.935814 -47.446950 0.000000
2713 1 -23.143276 -44.599211 0.000000
2714 1 -22.726561 -45.305243 0.000000
2715 1 -21.934023 -42.457504 0.000000
2716 1 -21.517307 -43.163537 0.000000
2717 1 -20.724770 -40.315798 0.000000
2718 1 -20.308054 -41.021830 0.000000
2719 1 -19.515516 -38.174091 0.000000
2720 1 -19.098801 -38.880124 0.000000
2721 1 -18.306263 -36.032385 0.000000
2722 1 -17.889548 -36.738417 0.000000
2723 1 -17.097010 -33.890678 0.000000
2724 1 -16.680295 -34.596711 0.000000
2725 1 -15.887757 -31.748972 0.000000
2726 1 -15.471042 -32.455004 0.000000
2727 1 -14.678504 -29.607265 0.000000
2728 1 -14.261788 -30.313298 0.000000
2729 1 -13.469250 -27.465559 0.000000
2730 1 -13.052535 -28.171591 0.000000
2731 1 -12.259997 -25.323852 0.000000
2732 1 -11.843282 -26.029885 0.000000
2733 1 -11.050744 -23.182146 0.000000
2734 1 -10.634029 -23.888178 0.000000
2735 1 -9.841491 -21.040439 0.000000
2736 1 -9.424776 -21.746472 0.000000
2737 1 -8.632238 -18.898733 0.000000
2738 1 -8.215522 -19.604765 0.000000
2739 1 -7.422984 -16.757026 0.000000
2740 1 -7.006269 -17.463059 0.000000
2741 1 -6.213731 -14.615320 0.000000
2742 1 -5.797016 -15.321352 0.000000
2743 1 -5.004478 -12.473613 0.000000
2744 1 -4.587763 -13.179646 0.000000
2745 1 -3.795225 -10.331907 0.000000
2746 1 -3.378510 -11.037939 0.000000
2747 1 -2.585972 -8.190201 0.000000
2748 1 -2.169256 -8.896233 0.000000
2749 1 -1.376718 -6.048494 0.000000
2750 1 -0.960003 -6.754526 0.000000
2751 1 -0.167465 -3.906788 0.000000
2752 1 0.249250 -4.612820 0.000000
2753 1 1.041788 -1.765081 0.000000
2754 1 1.458503 -2.471113 0.000000
2755 1 2.251041 0.376625 0.000000
2756 1 2.667756 -0.329407 0.000000
2757 1 3.460294 2.518332 0.000000
2758 1 3.877010 1.812300 0.000000
2759 1 4.669548 4.660038 0.000000
2760 1 5.086263 3.954006 0.000000
2761 1 5.878801 6.801745 0.000000
2762 1 6.295516 6.095713 0.000000
2763 1 7.088054 8.943451 0.000000
2764 1 7.504769 8.237419 0.000000
2765 1 8.297307 11.085158 0.000000
2766 1 8.714022 10.379126 0.000000
2767 1 9.506560 13.226864 0.000000
2768 1 9.923276 12.520832 0.000000
2769 1 10.715814 15.368571 0.000000
2770 1 11.132529 14.662539 0.000000
2771 1 11.925067 17.510277 0.000000
2772 1 12.341782 16.804245 0.000000
2773 1 13.134320 19.651984 0.000000
2774 1 13.551035 18.945951 0.000000
2775 1 14.343573 21.793690 0.000000
2776 1 14.760288 21.087658 0.000000
2777 1 15.552826 23.935397 0.000000
2778 1 15.969542 23.229364 0.000000
2779 1 16.762080 26.077103 0.000000
2780 1 17.178795 25.371071 0.000000
2781 1 17.971333 28.218810 0.000000
2782 1 18.388048 27.512777 0.000000
2783 1 19.180586 30.360516 0.000000
2784 1 19.597301 29.654484 0.000000
2785 1 20.389839 32.502223 0.000000
2786 1 20.806554 31.796190 0.000000
2787 1 21.599092 34.643929 0.000000
2788 1 22.015808 33.937897 0.000000
2789 1 22.808346 36.785636 0.000000
2790 1 23.225061 36.079603 0.000000
2791 1 24.017599 38.927342 0.000000
2792 1 24.434314 38.221310 0.000000
2793 1 25.226852 41.069049 0.000000
2794 1 25.643567 40.363016 0.000000
2795 1 26.436105 43.210755 0.000000
2796 1 26.852820 42.504723 0.000000
2797 1 27.645358 45.352462 0.000000
2798 1 28.062074 44.646429 0.000000
2799 1 28.854612 47.494168 0.000000
2800 1 29.271327 46.788136 0.000000
2801 1 30.063865 49.635875 0.000000
2802 1 30.480580 48.929842 0.000000
2803 1 31.273118 51.777581 0.000000
2804 1 31.689833 51.071549 0.000000
2805 1 32.482371 53.919288 0.000000
2806 1 32.899086 53.213255 0.000000
2807 1 33.691624 56.060994 0.000000
2808 1 34.108340 55.354962 0.000000
2809 1 34.900878 58.202701 0.000000
2810 1 35.317593 57.496668 0.000000
2811 1 -27.939396 -57.425841 0.000000
2812 1 -27.522681 -58.131873 0.000000
2813 1 -26.730143 -55.284134 0.000000
2814 1 -26.313428 -55.990167 0.000000
2815 1 -25.520890 -53.142428 0.000000
2816 1 -25.104175 -53.848460 0.000000
2817 1 -24.311637 -51.000721 0.000000
2818 1 -23.894921 -51.706754 0.000000
2819 1 -23.102383 -48.859015 0.000000
2820 1 -22.685668 -49.565047 0.000000
2821 1 -21.893130 -46.717308 0.000000
2822 1 -21.476415 -47.423341 0.000000
2823 1 -20.683877 -44.575602 0.000000
2824 1 -20.267162 -45.281634 0.000000
2825 1 -19.474624 -42.433895 0.000000
2826 1 -19.057909 -43.139928 0.000000
2827 1 -18.265371 -40.292189 0.000000
2828 1 -17.848655 -40.998221 0.000000
2829 1 -17.056117 -38.150482 0.000000
2830 1 -16.639402 -38.856515 0.000000
2831 1 -15.846864 -36.008776 0.000000
2832 1 -15.430149 -36.714808 0.000000
2833 1 -14.637611 -33.867069 0.000000
2834 1 -14.220896 -34.573102 0.000000
2835 1 -13.428358 -31.725363 0.000000
2836 1 -13.011643 -32.431395 0.000000
2837 1 -12.219105 -29.583656 0.000000
2838 1 -11.802389 -30.289689 0.000000
2839 1 -11.009852 -27.441950 0.000000
2840 1 -10.593136 -28.147982 0.000000
2841 1 -9.800598 -25.300243 0.000000
2842 1 -9.383883 -26.006276 0.000000
2843 1 -8.591345 -23.158537 0.000000
2844 1 -8.174630 -23.864569 0.000000
2845 1 -7.382092 -21.016830 0.000000
2846 1 -6.965377 -21.722863 0.000000
2847 1 -6.172839 -18.875124 0.000000
2848 1 -5.756124 -19.581156 0.000000
2849 1 -4.963586 -16.733417 0.000000
2850 1 -4.546870 -17.439450 0.000000
2851 1 -3.754332 -14.591711 0.000000
2852 1 -3.337617 -15.297743 0.000000
2853 1 -2.545079 -12.450004 0.000000
2854 1 -2.128364 -13.156037 0.000000
2855 1 -1.335826 -10.308298 0.000000
2856 1 -0.919111 -11.014330 0.000000
2857 1 -0.126573 -8.166591 0.000000
2858 1 0.290142 -8.872624 0.000000
2859 1 1.082680 -6.024885 0.000000
2860 1 1.499396 -6.730917 0.000000
2861 1 2.291934 -3.883178 0.000000
2862 1 2.708649 -4.589211 0.000000
2863 1 3.501187 -1.741472 0.000000
2864 1 3.917902 -2.447504 0.000000
2865 1 4.710440 0.400235 0.000000
2866 1 5.127155 -0.305798 0.000000
2867 1 5.919693 2.541941 0.000000
2868 1 6.336408 1.835909 0.000000
2869 1 7.128946 4.683648 0.000000
2870 1 7.545662 3.977615 0.000000
2871 1 8.338200 6.825354 0.000000
2872 1 8.754915 6.119322 0.000000
2873 1 9.547453 8.967061 0.000000
2874 1 9.964168 8.261028 0.000000
2875 1 10.756706 11.108767 0.000000
2876 1 11.173421 10.402735 0.000000
2877 1 11.965959 13.250474 0.000000
2878 1 12.382674 12.544441 0.000000
2879 1 13.175212 15.392180 0.000000
2880 1 13.591928 14.686148 0.000000
2881 1 14.384466 17.533887 0.000000
2882 1 14.801181 16.827854 0.000000
2883 1 15.593719 19.675593 0.000000
2884 1 16.010434 18.969561 0.000000
2885 1 16.802972 21.817300 0.000000
2886 1 17.219687 21.111267 0.000000
2887 1 18.012225 23.959006 0.000000
2888 1 18.428940 23.252974 0.000000
2889 1 19.221478 26.100713 0.000000
2890 1 19.638194 25.394680 0.000000
2891 1 20.430732 28.242419 0.000000
2892 1 20.847447 27.536387 0.000000
2893 1 21.639985 30.384126 0.000000
2894 1 22.056700 29.678093 0.000000
2895 1 22.849238 32.525832 0.000000
2896 1 23.265953 31.819800 0.000000
2897 1 24.058491 34.667539 0.000000
2898 1 24.475206 33.961506 0.000000
2899 1 25.267744 36.809245 0.000000
2900 1 25.684460 36.103213 0.000000
2901 1 26.476998 38.950952 0.000000
2902 1 26.893713 38.244919 0.000000
2903 1 27.686251 41.092658 0.000000
2904 1 28.102966 40.386626 0.000000
2905 1 28.895504 43.234365 0.000000
2906 1 29.312219 42.528332 0.000000
2907 1 30.104757 45.376071 0.000000
2908 1 30.521472 44.670039 0.000000
2909 1 31.314010 47.517778 0.000000
2910 1 31.730726 46.811745 0.000000
2911 1 32.523264 49.659484 0.000000
2912 1 32.939979 48.953452 0.000000
2913 1 33.732517 51.801191 0.000000
2914 1 34.149232 51.095158 0.000000
2915 1 34.941770 53.942897 0.000000
2916 1 35.358485 53.236865 0.000000
2917 1 36.151023 56.084604 0.000000
2918 1 36.567738 55.378571 0.000000
2919 1 37.360276 58.226310 0.000000
2920 1 37.776992 57.520278 0.000000
2921 1 -25.479997 -57.402231 0.000000
2922 1 -25.063282 -58.108264 0.000000
2923 1 -24.270744 -55.260525 0.000000
2924 1 -23.854029 -55.966557 0.000000
2925 1 -23.061491 -53.118818 0.000000
2926 1 -22.644776 -53.824851 0.000000
2927 1 -21.852238 -50.977112 0.000000
2928 1 -21.435523 -51.683144 0.000000
2929 1 -20.642985 -48.835405 0.000000
2930 1 -20.226269 -49.541438 0.000000
2931 1 -19.433731 -46.693699 0.000000
2932 1 -19.017016 -47.399731 0.000000
2933 1 -18.224478 -44.551992 0.000000
2934 1 -17.807763 -45.258025 0.000000
2935 1 -17.015225 -42.410286 0.000000
2936 1 -16.598510 -43.116318 0.000000
2937 1 -15.805972 -40.268579 0.000000
2938 1 -15.389257 -40.974612 0.000000
2939 1 -14.596719 -38.126873 0.000000
2940 1 -14.180003 -38.832905 0.000000
2941 1 -13.387465 -35.985166 0.000000
2942 1 -12.970750 -36.691199 0.000000
2943 1 -12.178212 -33.843460 0.000000
2944 1 -11.761497 -34.549492 0.000000
2945 1 -10.968959 -31.701753 0.000000
2946 1 -10.552244 -32.407786 0.000000
2947 1 -9.759706 -29.560047 0.000000
2948 1 -9.342991 -30.266079 0.000000
2949 1 -8.550453 -27.418340 0.000000
2950 1 -8.133737 -28.124373 0.000000
2951 1 -7.341199 -25.276634 0.000000
2952 1 -6.924484 -25.982666 0.000000
2953 1 -6.131946 -23.134927 0.000000
2954 1 -5.715231 -23.840960 0.000000
2955 1 -4.922693 -20.993221 0.000000
2956 1 -4.505978 -21.699253 0.000000
2957 1 -3.713440 -18.851514 0.000000
2958 1 -3.296725 -19.557547 0.000000
2959 1 -2.504187 -16.709808 0.000000
2960 1 -2.087471 -17.415840 0.000000
2961 1 -1.294933 -14.568101 0.000000
2962 1 -0.878218 -15.274134 0.000000
2963 1 -0.085680 -12.426395 0.000000
2964 1 0.331035 -13.132427 0.000000
2965 1 1.123573 -10.284688 0.000000
2966 1 1.540288 -10.990721 0.000000
2967 1 2.332826 -8.142982 0.000000
2968 1 2.749541 -8.849014 0.000000
2969 1 3.542079 -6.001275 0.000000
2970 1 3.958795 -6.707308 0.000000
2971 1 4.751332 -3.859569 0.000000
2972 1 5.168048 -4.565601 0.000000
2973 1 5.960586 -1.717863 0.000000
2974 1 6.377301 -2.423895 0.000000
2975 1 7.169839 0.423844 0.000000
2976 1 7.586554 -0.282188 0.000000
2977 1 8.379092 2.565550 0.000000
2978 1 8.795807 1.859518 0.000000
2979 1 9.588345 4.707257 0.000000
2980 1 10.005060 4.001225 0.000000
2981 1 10.797598 6.848963 0.000000
2982 1 11.214314 6.142931 0.000000
2983 1 12.006852 8.990670 0.000000
2984 1 12.423567 8.284638 0.000000
2985 1 13.216105 11.132376 0.000000
2986 1 13.632820 10.426344 0.000000
2987 1 14.425358 13.274083 0.000000
2988 1 14.842073 12.568051 0.000000
2989 1 15.634611 15.415789 0.000000
2990 1 16.051326 14.709757 0.000000
2991 1 16.843864 17.557496 0.000000
2992 1 17.260580 16.851464 0.000000
2993 1 18.053118 19.699202 0.000000
2994 1 18.469833 18.993170 0.000000
2995 1 19.262371 21.840909 0.000000
2996 1 19.679086 21.134877 0.000000
2997 1 20.471624 23.982615 0.000000
2998 1 20.888339 23.276583 0.000000
2999 1 21.680877 26.124322 0.000000
3000 1 22.097592 25.418289 0.000000
3001 1 22.890130 28.266028 0.000000
3002 1 23.306846 27.559996 0.000000
3003 1 24.099384 30.407735 0.000000
3004 1 24.516099 29.701702 0.000000
3005 1 25.308637 32.549441 0.000000
3006 1 25.725352 31.843409 0.000000
3007 1 26.517890 34.691148 0.000000
3008 1 26.934605 33.985115 0.000000
3009 1 27.727143 36.832854 0.000000
3010 1 28.143858 36.126822 0.000000
3011 1 28.936396 38.974561 0.000000
3012 1 29.353112 38.268528 0.000000
3013 1 30.145650 41.116267 0.000000
3014 1 30.562365 40.410235 0.000000
3015 1 31.354903 43.257974 0.000000
3016 1 31.771618 42.551941 0.000000
3017 1 32.564156 45.399680 0.000000
3018 1 32.980871 44.693648 0.000000
3019 1 33.773409 47.541387 0.000000
3020 1 34.190124 46.835354 0.000000
3021 1 34.982662 49.683093 0.000000
3022 1 35.399378 48.977061 0.000000
3023 1 36.191916 51.824800 0.000000
3024 1 36.608631 51.118767 0.000000
3025 1 37.401169 53.966506 0.000000
3026 1 37.817884 53.260474 0.000000
3027 1 38.610422 56.108213 0.000000
3028 1 39.027137 55.402180 0.000000
3029 1 39.819675 58.249919 0.000000
3030 1 40.236390 57.543887 0.000000
3031 1 -23.020599 -57.378622 0.000000
3032 1 -22.603883 -58.084655 0.000000
3033 1 -21.811345 -55.236916 0.000000
3034 1 -21.394630 -55.942948 0.000000
3035 1 -20.602092 -53.095209 0.000000
3036 1 -20.185377 -53.801242 0.000000
3037 1 -19.392839 -50.953503 0.000000
3038 1 -18.976124 -51.659535 0.000000
3039 1 -18.183586 -48.811796 0.000000
3040 1 -17.766871 -49.517829 0.000000
3041 1 -16.974333 -46.670090 0.000000
3042 1 -16.557617 -47.376122 0.000000
3043 1 -15.765079 -44.528383 0.000000
3044 1 -15.348364 -45.234416 0.000000
3045 1 -14.555826 -42.386677 0.000000
3046 1 -14.139111 -43.092709 0.000000
3047 1 -13.346573 -40.244970 0.000000
3048 1 -12.929858 -40.951003 0.000000
3049 1 -12.137320 -38.103264 0.000000
3050 1 -11.720605 -38.809296 0.000000
3051 1 -10.928067 -35.961557 0.000000
3052 1 -10.511351 -36.667590 0.000000
3053 1 -9.718813 -33.819851 0.000000
3054 1 -9.302098 -34.525883 0.000000
3055 1 -8.509560 -31.678144 0.000000
3056 1 -8.092845 -32.384177 0.000000
3057 1 -7.300307 -29.536438 0.000000
3058 1 -6.883592 -30.242470 0.000000
3059 1 -6.091054 -27.394731 0.000000
3060 1 -5.674339 -28.100764 0.000000
3061 1 -4.881801 -25.253025 0.000000
3062 1 -4.465085 -25.959057 0.000000
3063 1 -3.672547 -23.111318 0.000000
3064 1 -3.255832 -23.817351 0.000000
3065 1 -2.463294 -20.969612 0.000000
3066 1 -2.046579 -21.675644 0.000000
3067 1 -1.254041 -18.827905 0.000000
3068 1 -0.837326 -19.533938 0.000000
3069 1 -0.044788 -16.686199 0.000000
3070 1 0.371927 -17.392231 0.000000
3071 1 1.164465 -14.544492 0.000000
3072 1 1.581181 -15.250525 0.000000
3073 1 2.373719 -12.402786 0.000000
3074 1 2.790434 -13.108818 0.000000
3075 1 3.582972 -10.261079 0.000000
3076 1 3.999687 -10.967112 0.000000
3077 1 4.792225 -8.119373 0.000000
3078 1 5.208940 -8.825405 0.000000
3079 1 6.001478 -5.977666 0.000000
3080 1 6.418193 -6.683699 0.000000
3081 1 7.210731 -3.835960 0.000000
3082 1 7.627447 -4.541992 0.000000
3083 1 8.419985 -1.694253 0.000000
3084 1 8.836700 -2.400286 0.000000
3085 1 9.629238 0.447453 0.000000
3086 1 10.045953 -0.258579 0.000000
3087 1 10.838491 2.589160 0.000000
3088 1 11.255206 1.883127 0.000000
3089 1 12.047744 4.730866 0.000000
3090 1 12.464459 4.024834 0.000000
3091 1 13.256997 6.872573 0.000000
3092 1 13.673713 6.166540 0.000000
3093 1 14.466250 9.014279 0.000000
3094 1 14.882966 8.308247 0.000000
3095 1 15.675504 11.155986 0.000000
3096 1 16.092219 10.449953 0.000000
3097 1 16.884757 13.297692 0.000000
3098 1 17.301472 12.591660 0.000000
3099 1 18.094010 15.439399 0.000000
3100 1 18.510725 14.733366 0.000000
3101 1 19.303263 17.581105 0.000000
3102 1 19.719978 16.875073 0.000000
3103 1 20.512516 19.722812 0.000000
3104 1 20.929232 19.016779 0.000000
3105 1 21.721770 21.864518 0.000000
3106 1 22.138485 21.158486 0.000000
3107 1 22.931023 24.006225 0.000000
3108 1 23.347738 23.300192 0.000000
3109 1 24.140276 26.147931 0.000000
3110 1 24.556991 25.441899 0.000000
3111 1 25.349529 28.289638 0.000000
3112 1 25.766244 27.583605 0.000000
3113 1 26.558782 30.431344 0.000000
3114 1 26.975498 29.725312 0.000000
3115 1 27.768036 32.573051 0.000000
3116 1 28.184751 31.867018 0.000000
3117 1 28.977289 34.714757 0.000000
3118 1 29.394004 34.008725 0.000000
3119 1 30.186542 36.856464 0.000000
3120 1 30.603257 36.150431 0.000000
3121 1 31.395795 38.998170 0.000000
3122 1 31.812510 38.292138 0.000000
3123 1 32.605048 41.139877 0.000000
3124 1 33.021764 40.433844 0.000000
3125 1 33.814302 43.281583 0.000000
3126 1 34.231017 42.575551 0.000000
3127 1 35.023555 45.423290 0.000000
3128 1 35.440270 44.717257 0.000000
3129 1 36.232808 47.564996 0.000000
3130 1 36.649523 46.858964 0.000000
3131 1 37.442061 49.706703 0.000000
3132 1 37.858776 49.000670 0.000000
3133 1 38.651314 51.848409 0.000000
3134 1 39.068030 51.142377 0.000000
3135 1 39.860568 53.990116 0.000000
3136 1 40.277283 53.284083 0.000000
3137 1 41.069821 56.131822 0.000000
3138 1 41.486536 55.425790 0.000000
3139 1 42.279074 58.273529 0.000000
3140 1 42.695789 57.567496 0.000000
3141 1 -20.561200 -57.355013 0.000000
3142 1 -20.144485 -58.061045 0.000000
3143 1 -19.351947 -55.213306 0.000000
3144 1 -18.935231 -55.919339 0.000000
3145 1 -18.142693 -53.071600 0.000000
3146 1 -17.725978 -53.777632 0.000000
3147 1 -16.933440 -50.929893 0.000000
3148 1 -16.516725 -51.635926 0.000000
3149 1 -15.724187 -48.788187 0.000000
3150 1 -15.307472 -49.494219 0.000000
3151 1 -14.514934 -46.646480 0.000000
3152 1 -14.098219 -47.352513 0.000000
3153 1 -13.305681 -44.504774 0.000000
3154 1 -12.888965 -45.210806 0.000000
3155 1 -12.096427 -42.363067 0.000000
3156 1 -11.679712 -43.069100 0.000000
3157 1 -10.887174 -40.221361 0.000000
3158 1 -10.470459 -40.927393 0.000000
3159 1 -9.677921 -38.079654 0.000000
3160 1 -9.261206 -38.785687 0.000000
3161 1 -8.468668 -35.937948 0.000000
3162 1 -8.051953 -36.643980 0.000000
3163 1 -7.259415 -33.796241 0.000000
3164 1 -6.842699 -34.502274 0.000000
3165 1 -6.050161 -31.654535 0.000000
3166 1 -5.633446 -32.360567 0.000000
3167 1 -4.840908 -29.512828 0.000000
3168 1 -4.424193 -30.218861 0.000000
3169 1 -3.631655 -27.371122 0.000000
3170 1 -3.214940 -28.077154 0.000000
3171 1 -2.422402 -25.229415 0.000000
3172 1 -2.005687 -25.935448 0.000000
3173 1 -1.213149 -23.087709 0.000000
3174 1 -0.796433 -23.793741 0.000000
3175 1 -0.003895 -20.946002 0.000000
3176 1 0.412820 -21.652035 0.000000
3177 1 1.205358 -18.804296 0.000000
3178 1 1.622073 -19.510328 0.000000
3179 1 2.414611 -16.662589 0.000000
3180 1 2.831326 -17.368622 0.000000
3181 1 3.623864 -14.520883 0.000000
3182 1 4.040579 -15.226915 0.000000
3183 1 4.833117 -12.379176 0.000000
3184 1 5.249833 -13.085209 0.000000
3185 1 6.042371 -10.237470 0.000000
3186 1 6.459086 -10.943502 0.000000
3187 1 7.251624 -8.095763 0.000000
3188 1 7.668339 -8.801796 0.000000
3189 1 8.460877 -5.954057 0.000000
3190 1 8.877592 -6.660089 0.000000
3191 1 9.670130 -3.812350 0.000000
3192 1 10.086845 -4.518383 0.000000
3193 1 10.879383 -1.670644 0.000000
3194 1 11.296099 -2.376676 0.000000
3195 1 12.088637 0.471063 0.000000
3196 1 12.505352 -0.234970 0.000000
3197 1 13.297890 2.612769 0.000000
3198 1 13.714605 1.906737 0.000000
3199 1 14.507143 4.754475 0.000000
3200 1 14.923858 4.048443 0.000000
3201 1 15.716396 6.896182 0.000000
3202 1 16.133111 6.190150 0.000000
3203 1 16.925649 9.037888 0.000000
3204 1 17.342365 8.331856 0.000000
3205 1 18.134903 11.179595 0.000000
3206 1 18.551618 10.473563 0.000000
3207 1 19.344156 13.321301 0.000000
3208 1 19.760871 12.615269 0.000000
3209 1 20.553409 15.463008 0.000000
3210 1 20.970124 14.756976 0.000000
3211 1 21.762662 17.604714 0.000000
3212 1 22.179377 16.898682 0.000000
3213 1 22.971915 19.746421 0.000000
3214 1 23.388631 19.040389 0.000000
3215 1 24.181169 21.888127 0.000000
3216 1 24.597884 21.182095 0.000000
3217 1 25.390422 24.029834 0.000000
3218 1 25.807137 23.323802 0.000000
3219 1 26.599675 26.171540 0.000000
3220 1 27.016390 25.465508 0.000000
3221 1 27.808928 28.313247 0.000000
3222 1 28.225643 27.607215 0.000000
3223 1 29.018181 30.454953 0.000000
3224 1 29.434897 29.748921 0.000000
3225 1 30.227434 32.596660 0.000000
3226 1 30.644150 31.890628 0.000000
3227 1 31.436688 34.738366 0.000000
3228 1 31.853403 34.032334 0.000000
3229 1 32.645941 36.880073 0.000000
3230 1 33.062656 36.174040 0.000000
3231 1 33.855194 39.021779 0.000000
3232 1 34.271909 38.315747 0.000000
3233 1 35.064447 41.163486 0.000000
3234 1 35.481162 40.457453 0.000000
3235 1 36.273700 43.305192 0.000000
3236 1 36.690416 42.599160 0.000000
3237 1 37.482954 45.446899 0.000000
3238 1 37.899669 44.740866 0.000000
3239 1 38.692207 47.588605 0.000000
3240 1 39.108922 46.882573 0.000000
3241 1 39.901460 49.730312 0.000000
3242 1 40.318175 49.024279 0.000000
3243 1 41.110713 51.872018 0.000000
3244 1 41.527428 51.165986 0.000000
3245 1 42.319966 54.013725 0.000000
3246 1 42.736682 53.307692 0.000000
3247 1 43.529220 56.155431 0.000000
3248 1 43.945935 55.449399 0.000000
3249 1 44.738473 58.297138 0.000000
3250 1 45.155188 57.591105 0.000000
3251 1 -18.101801 -57.331404 0.000000
3252 1 -17.685086 -58.037436 0.000000
3253 1 -16.892548 -55.189697 0.000000
3254 1 -16.475833 -55.895729 0.000000
3255 1 -15.683295 -53.047991 0.000000
3256 1 -15.266579 -53.754023 0.000000
3257 1 -14.474041 -50.906284 0.000000
3258 1 -14.057326 -51.612317 0.000000
3259 1 -13.264788 -48.764578 0.000000
3260 1 -12.848073 -49.470610 0.000000
3261 1 -12.055535 -46.622871 0.000000
3262 1 -11.638820 -47.328904 0.000000
3263 1 -10.846282 -44.481165 0.000000
3264 1 -10.429567 -45.187197 0.000000
3265 1 -9.637029 -42.339458 0.000000
3266 1 -9.220313 -43.045491 0.000000
3267 1 -8.427775 -40.197752 0.000000
3268 1 -8.011060 -40.903784 0.000000
3269 1 -7.218522 -38.056045 0.000000
3270 1 -6.801807 -38.762078 0.000000
3271 1 -6.009269 -35.914339 0.000000
3272 1 -5.592554 -36.620371 0.000000
3273 1 -4.800016 -33.772632 0.000000
3274 1 -4.383301 -34.478665 0.000000
3275 1 -3.590763 -31.630926 0.000000
3276 1 -3.174047 -32.336958 0.000000
3277 1 -2.381509 -29.489219 0.000000
3278 1 -1.964794 -30.195252 0.000000
3279 1 -1.172256 -27.347513 0.000000
3280 1 -0.755541 -28.053545 0.000000
3281 1 0.036997 -25.205806 0.000000
3282 1 0.453712 -25.911839 0.000000
3283 1 1.246250 -23.064100 0.000000
3284 1 1.662965 -23.770132 0.000000
3285 1 2.455503 -20.922393 0.000000
3286 1 2.872219 -21.628426 0.000000
3287 1 3.664757 -18.780687 0.000000
3288 1 4.081472 -19.486719 0.000000
3289 1 4.874010 -16.638980 0.000000
3290 1 5.290725 -17.345013 0.000000
3291 1 6.083263 -14.497274 0.000000
3292 1 6.499978 -15.203306 0.000000
3293 1 7.292516 -12.355567 0.000000
3294 1 7.709231 -13.061600 0.000000
3295 1 8.501769 -10.213861 0.000000
3296 1 8.918485 -10.919893 0.000000
3297 1 9.711023 -8.072154 0.000000
3298 1 10.127738 -8.778187 0.000000
3299 1 10.920276 -5.930448 0.000000
3300 1 11.336991 -6.636480 0.000000
3301 1 12.129529 -3.788741 0.000000
3302 1 12.546244 -4.494774 0.000000
3303 1 13.338782 -1.647035 0.000000
3304 1 13.755497 -2.353067 0.000000
3305 1 14.548035 0.494672 0.000000
3306 1 14.964751 -0.211361 0.000000
3307 1 15.757289 2.636378 0.000000
3308 1 16.174004 1.930346 0.000000
3309 1 16.966542 4.778085 0.000000
3310 1 17.383257 4.072052 0.000000
3311 1 18.175795 6.919791 0.000000
3312 1 18.592510 6.213759 0.000000
3313 1 19.385048 9.061498 0.000000
3314 1 19.801763 8.355465 0.000000
3315 1 20.594301 11.203204 0.000000
3316 1 21.011017 10.497172 0.000000
3317 1 21.803555 13.344911 0.000000
3318 1 22.220270 12.638878 0.000000
3319 1 23.012808 15.486617 0.000000
3320 1 23.429523 14.780585 0.000000
3321 1 24.222061 17.628324 0.000000
3322 1 24.638776 16.922291 0.000000
3323 1 25.431314 19.770030 0.000000
3324 1 25.848029 19.063998 0.000000
3325 1 26.640567 21.911737 0.000000
3326 1 27.057283 21.205704 0.000000
3327 1 27.849821 24.053443 0.000000
3328 1 28.266536 23.347411 0.000000
3329 1 29.059074 26.195150 0.000000
3330 1 29.475789 25.489117 0.000000
3331 1 30.268327 28.336856 0.000000
3332 1 30.685042 27.630824 0.000000
3333 1 31.477580 30.478563 0.000000
3334 1 31.894295 29.772530 0.000000
3335 1 32.686833 32.620269 0.000000
3336 1 33.103549 31.914237 0.000000
3337 1 33.896087 34.761976 0.000000
3338 1 34.312802 34.055943 0.000000
3339 1 35.105340 36.903682 0.000000
3340 1 35.522055 36.197650 0.000000
3341 1 36.314593 39.045389 0.000000
3342 1 36.731308 38.339356 0.000000
3343 1 37.523846 41.187095 0.000000
3344 1 37.940561 40.481063 0.000000
3345 1 38.733099 43.328802 0.000000
3346 1 39.149815 42.622769 0.000000
3347 1 39.942353 45.470508 0.000000
3348 1 40.359068 44.764476 0.000000
3349 1 41.151606 47.612215 0.000000
3350 1 41.568321 46.906182 0.000000
3351 1 42.360859 49.753921 0.000000
3352 1 42.777574 49.047889 0.000000
3353 1 43.570112 51.895628 0.000000
3354 1 43.986827 51.189595 0.000000
3355 1 44.779365 54.037334 0.000000
3356 1 45.196080 53.331302 0.000000
3357 1 45.988618 56.179041 0.000000
3358 1 46.405334 55.473008 0.000000
3359 1 47.197872 58.320747 0.000000
3360 1 47.614587 57.614715 0.000000
3361 1 -15.642402 -57.307794 0.000000
3362 1 -15.225687 -58.013827 0.000000
3363 1 -14.433149 -55.166088 0.000000
3364 1 -14.016434 -55.872120 0.000000
3365 1 -13.223896 -53.024381 0.000000
3366 1 -12.807181 -53.730414 0.000000
3367 1 -12.014643 -50.882675 0.000000
3368 1 -11.597927 -51.588707 0.000000
3369 1 -10.805389 -48.740968 0.000000
3370 1 -10.388674 -49.447001 0.000000
3371 1 -9.596136 -46.599262 0.000000
3372 1 -9.179421 -47.305294 0.000000
3373 1 -8.386883 -44.457555 0.000000
3374 1 -7.970168 -45.163588 0.000000
3375 1 -7.177630 -42.315849 0.000000
3376 1 -6.760915 -43.021881 0.000000
3377 1 -5.968377 -40.174142 0.000000
3378 1 -5.551661 -40.880175 0.000000
3379 1 -4.759123 -38.032436 0.000000
3380 1 -4.342408 -38.738468 0.000000
3381 1 -3.549870 -35.890729 0.000000
3382 1 -3.133155 -36.596762 0.000000
3383 1 -2.340617 -33.749023 0.000000
3384 1 -1.923902 -34.455055 0.000000
3385 1 -1.131364 -31.607316 0.000000
3386 1 -0.714649 -32.313349 0.000000
3387 1 0.077889 -29.465610 0.000000
3388 1 0.494605 -30.171642 0.000000
3389 1 1.287143 -27.323903 0.000000
3390 1 1.703858 -28.029936 0.000000
3391 1 2.496396 -25.182197 0.000000
3392 1 2.913111 -25.888229 0.000000
3393 1 3.705649 -23.040490 0.000000
3394 1 4.122364 -23.746523 0.000000
3395 1 4.914902 -20.898784 0.000000
3396 1 5.331617 -21.604816 0.000000
3397 1 6.124155 -18.757077 0.000000
3398 1 6.540871 -19.463110 0.000000
3399 1 7.333409 -16.615371 0.000000
3400 1 7.750124 -17.321403 0.000000
3401 1 8.542662 -14.473664 0.000000
3402 1 8.959377 -15.179697 0.000000
3403 1 9.751915 -12.331958 0.000000
3404 1 10.168630 -13.037990 0.000000
3405 1 10.961168 -10.190251 0.000000
3406 1 11.377883 -10.896284 0.000000
3407 1 12.170421 -8.048545 0.000000
3408 1 12.587137 -8.754577 0.000000
3409 1 13.379675 -5.906838 0.000000
3410 1 13.796390 -6.612871 0.000000
3411 1 14.588928 -3.765132 0.000000
3412 1 15.005643 -4.471164 0.000000
3413 1 15.798181 -1.623425 0.000000
3414 1 16.214896 -2.329458 0.000000
3415 1 17.007434 0.518281 0.000000
3416 1 17.424149 -0.187751 0.000000
3417 1 18.216687 2.659988 0.000000
3418 1 18.633403 1.953955 0.000000
3419 1 19.425941 4.801694 0.000000
3420 1 19.842656 4.095662 0.000000
3421 1 20.635194 6.943401 0.000000
3422 1 21.051909 6.237368 0.000000
3423 1 21.844447 9.085107 0.000000
3424 1 22.261162 8.379075 0.000000
3425 1 23.053700 11.226813 0.000000
3426 1 23.470415 10.520781 0.000000
3427 1 24.262953 13.368520 0.000000
3428 1 24.679669 12.662488 0.000000
3429 1 25.472207 15.510226 0.000000
3430 1 25.888922 14.804194 0.000000
3431 1 26.681460 17.651933 0.000000
3432 1 27.098175 16.945901 0.000000
3433 1 27.890713 19.793639 0.000000
3434 1 28.307428 19.087607 0.000000
3435 1 29.099966 21.935346 0.000000
3436 1 29.516681 21.229314 0.000000
3437 1 30.309219 24.077052 0.000000
3438 1 30.725935 23.371020 0.000000
3439 1 31.518473 26.218759 0.000000
3440 1 31.935188 25.512727 0.000000
3441 1 32.727726 28.360465 0.000000
3442 1 33.144441 27.654433 0.000000
3443 1 33.936979 30.502172 0.000000
3444 1 34.353694 29.796140 0.000000
3445 1 35.146232 32.643878 0.000000
3446 1 35.562947 31.937846 0.000000
3447 1 36.355485 34.785585 0.000000
3448 1 36.772201 34.079553 0.000000
3449 1 37.564739 36.927291 0.000000
3450 1 37.981454 36.221259 0.000000
3451 1 38.773992 39.068998 0.000000
3452 1 39.190707 38.362966 0.000000
3453 1 39.983245 41.210704 0.000000
3454 1 40.399960 40.504672 0.000000
3455 1 41.192498 43.352411 0.000000
3456 1 41.609213 42.646378 0.000000
3457 1 42.401751 45.494117 0.000000
3458 1 42.818467 44.788085 0.000000
3459 1 43.611005 47.635824 0.000000
3460 1 44.027720 46.929791 0.000000
3461 1 44.820258 49.777530 0.000000
3462 1 45.236973 49.071498 0.000000
3463 1 46.029511 51.919237 0.000000
3464 1 46.446226 51.213204 0.000000
3465 1 47.238764 54.060943 0.000000
3466 1 47.655479 53.354911 0.000000
3467 1 48.448017 56.202650 0.000000
3468 1 48.864733 55.496617 0.000000
3469 1 49.657271 58.344356 0.000000
3470 1 50.073986 57.638324 0.000000
3471 1 -13.183003 -57.284185 0.000000
3472 1 -12.766288 -57.990217 0.000000
3473 1 -11.973750 -55.142479 0.000000
3474 1 -11.557035 -55.848511 0.000000
3475 1 -10.764497 -53.000772 0.000000
3476 1 -10.347782 -53.706804 0.000000
3477 1 -9.555244 -50.859066 0.000000
3478 1 -9.138528 -51.565098 0.000000
3479 1 -8.345990 -48.717359 0.000000
3480 1 -7.929275 -49.423391 0.000000
3481 1 -7.136737 -46.575653 0.000000
3482 1 -6.720022 -47.281685 0.000000
3483 1 -5.927484 -44.433946 0.000000
3484 1 -5.510769 -45.139979 0.000000
3485 1 -4.718231 -42.292240 0.000000
3486 1 -4.301516 -42.998272 0.000000
3487 1 -3.508978 -40.150533 0.000000
3488 1 -3.092262 -40.856566 0.000000
3489 1 -2.299725 -38.008827 0.000000
3490 1 -1.883009 -38.714859 0.000000
3491 1 -1.090471 -35.867120 0.000000
3492 1 -0.673756 -36.573153 0.000000
3493 1 0.118782 -33.725414 0.000000
3494 1 0.535497 -34.431446 0.000000
3495 1 1.328035 -31.583707 0.000000
3496 1 1.744750 -32.289740 0.000000
3497 1 2.537288 -29.442001 0.000000
3498 1 2.954003 -30.148033 0.000000
3499 1 3.746541 -27.300294 0.000000
3500 1 4.163257 -28.006327 0.000000
3501 1 4.955795 -25.158588 0.000000
3502 1 5.372510 -25.864620 0.000000
3503 1 6.165048 -23.016881 0.000000
3504 1 6.581763 -23.722914 0.000000
3505 1 7.374301 -20.875175 0.000000
3506 1 7.791016 -21.581207 0.000000
3507 1 8.583554 -18.733468 0.000000
3508 1 9.000269 -19.439501 0.000000
3509 1 9.792807 -16.591762 0.000000
3510 1 10.209523 -17.297794 0.000000
3511 1 11.002061 -14.450055 0.000000
3512 1 11.418776 -15.156088 0.000000
3513 1 12.211314 -12.308349 0.000000
3514 1 12.628029 -13.014381 0.000000
3515 1 13.420567 -10.166642 0.000000
3516 1 13.837282 -10.872675 0.000000
3517 1 14.629820 -8.024936 0.000000
3518 1 15.046535 -8.730968 0.000000
3519 1 15.839073 -5.883229 0.000000
3520 1 16.255789 -6.589262 0.000000
3521 1 17.048327 -3.741523 0.000000
3522 1 17.465042 -4.447555 0.000000
3523 1 18.257580 -1.599816 0.000000
3524 1 18.674295 -2.305849 0.000000
3525 1 19.466833 0.541890 0.000000
3526 1 19.883548 -0.164142 0.000000
3527 1 20.676086 2.683597 0.000000
3528 1 21.092801 1.977564 0.000000
3529 1 21.885339 4.825303 0.000000
3530 1 22.302055 4.119271 0.000000
3531 1 23.094593 6.967010 0.000000
3532 1 23.511308 6.260977 0.000000
3533 1 24.303846 9.108716 0.000000
3534 1 24.720561 8.402684 0.000000
3535 1 25.513099 11.250423 0.000000
3536 1 25.929814 10.544390 0.000000
3537 1 26.722352 13.392129 0.000000
3538 1 27.139067 12.686097 0.000000
3539 1 27.931605 15.533836 0.000000
3540 1 28.348321 14.827803 0.000000
3541 1 29.140859 17.675542 0.000000
3542 1 29.557574 16.969510 0.000000
3543 1 30.350112 19.817249 0.000000
3544 1 30.766827 19.111216 0.000000
3545 1 31.559365 21.958955 0.000000
3546 1 31.976080 21.252923 0.000000
3547 1 32.768618 24.100662 0.000000
3548 1 33.185333 23.394629 0.000000
3549 1 33.977871 26.242368 0.000000
3550 1 34.394587 25.536336 0.000000
3551 1 35.187125 28.384075 0.000000
3552 1 35.603840 27.678042 0.000000
3553 1 36.396378 30.525781 0.000000
3554 1 36.813093 29.819749 0.000000
3555 1 37.605631 32.667488 0.000000
3556 1 38.022346 31.961455 0.000000
3557 1 38.814884 34.809194 0.000000
3558 1 39.231599 34.103162 0.000000
3559 1 40.024137 36.950901 0.000000
3560 1 40.440853 36.244868 0.000000
3561 1 41.233391 39.092607 0.000000
3562 1 41.650106 38.386575 0.000000
3563 1 42.442644 41.234314 0.000000
3564 1 42.859359 40.528281 0.000000
3565 1 43.651897 43.376020 0.000000
3566 1 44.068612 42.669988 0.000000
3567 1 44.861150 45.517727 0.000000
3568 1 45.277865 44.811694 0.000000
3569 1 46.070403 47.659433 0.000000
3570 1 46.487119 46.953401 0.000000
3571 1 47.279657 49.801140 0.000000
3572 1 47.696372 49.095107 0.000000
3573 1 48.488910 51.942846 0.000000
3574 1 48.905625 51.236814 0.000000
3575 1 49.698163 54.084553 0.000000
3576 1 50.114878 53.378520 0.000000
3577 1 50.907416 56.226259 0.000000
3578 1 51.324131 55.520227 0.000000
3579 1 -10.723604 -57.260576 0.000000
3580 1 -10.306889 -57.966608 0.000000
3581 1 -9.514351 -55.118869 0.000000
3582 1 -9.097636 -55.824902 0.000000
3583 1 -8.305098 -52.977163 0.000000
3584 1 -7.888383 -53.683195 0.000000
3585 1 -7.095845 -50.835456 0.000000
3586 1 -6.679130 -51.541489 0.000000
3587 1 -5.886592 -48.693750 0.000000
3588 1 -5.469876 -49.399782 0.000000
3589 1 -4.677338 -46.552043 0.000000
3590 1 -4.260623 -47.258076 0.000000
3591 1 -3.468085 -44.410337 0.000000
3592 1 -3.051370 -45.116369 0.000000
3593 1 -2.258832 -42.268630 0.000000
3594 1 -1.842117 -42.974663 0.000000
3595 1 -1.049579 -40.126924 0.000000
3596 1 -0.632864 -40.832956 0.000000
3597 1 0.159674 -37.985217 0.000000
3598 1 0.576390 -38.691250 0.000000
3599 1 1.368928 -35.843511 0.000000
3600 1 1.785643 -36.549543 0.000000
3601 1 2.578181 -33.701804 0.000000
3602 1 2.994896 -34.407837 0.000000
3603 1 3.787434 -31.560098 0.000000
3604 1 4.204149 -32.266130 0.000000
3605 1 4.996687 -29.418391 0.000000
3606 1 5.413402 -30.124424 0.000000
3607 1 6.205940 -27.276685 0.000000
3608 1 6.622656 -27.982717 0.000000
3609 1 7.415194 -25.134978 0.000000
3610 1 7.831909 -25.841011 0.000000
3611 1 8.624447 -22.993272 0.000000
3612 1 9.041162 -23.699304 0.000000
3613 1 9.833700 -20.851565 0.000000
3614 1 10.250415 -21.557598 0.000000
3615 1 11.042953 -18.709859 0.000000
3616 1 11.459668 -19.415891 0.000000
3617 1 12.252206 -16.568152 0.000000
3618 1 12.668921 -17.274185 0.000000
3619 1 13.461459 -14.426446 0.000000
3620 1 13.878175 -15.132478 0.000000
3621 1 14.670713 -12.284739 0.000000
3622 1 15.087428 -12.990772 0.000000
3623 1 15.879966 -10.143033 0.000000
3624 1 16.296681 -10.849065 0.000000
3625 1 17.089219 -8.001326 0.000000
3626 1 17.505934 -8.707359 0.000000
3627 1 18.298472 -5.859620 0.000000
3628 1 18.715187 -6.565652 0.000000
3629 1 19.507725 -3.717913 0.000000
3630 1 19.924441 -4.423946 0.000000
3631 1 20.716979 -1.576207 0.000000
3632 1 21.133694 -2.282239 0.000000
3633 1 21.926232 0.565500 0.000000
3634 1 22.342947 -0.140533 0.000000
3635 1 23.135485 2.707206 0.000000
3636 1 23.552200 2.001174 0.000000
3637 1 24.344738 4.848913 0.000000
3638 1 24.761453 4.142880 0.000000
3639 1 25.553991 6.990619 0.000000
3640 1 25.970707 6.284587 0.000000
3641 1 26.763245 9.132326 0.000000
3642 1 27.179960 8.426293 0.000000
3643 1 27.972498 11.274032 0.000000
3644 1 28.389213 10.568000 0.000000
3645 1 29.181751 13.415739 0.000000
3646 1 29.598466 12.709706 0.000000
3647 1 30.391004 15.557445 0.000000
3648 1 30.807719 14.851413 0.000000
3649 1 31.600257 17.699151 0.000000
3650 1 32.016973 16.993119 0.000000
3651 1 32.809511 19.840858 0.000000
3652 1 33.226226 19.134826 0.000000
3653 1 34.018764 21.982564 0.000000
3654 1 34.435479 21.276532 0.000000
3655 1 35.228017 24.124271 0.000000
3656 1 35.644732 23.418239 0.000000
3657 1 36.437270 26.265977 0.000000
3658 1 36.853985 25.559945 0.000000
3659 1 37.646523 28.407684 0.000000
3660 1 38.063239 27.701652 0.000000
3661 1 38.855777 30.549390 0.000000
3662 1 39.272492 29.843358 0.000000
3663 1 40.065030 32.691097 0.000000
3664 1 40.481745 31.985065 0.000000
3665 1 41.274283 34.832803 0.000000
3666 1 41.690998 34.126771 0.000000
3667 1 42.483536 36.974510 0.000000
3668 1 42.900251 36.268478 0.000000
3669 1 43.692789 39.116216 0.000000
3670 1 44.109505 38.410184 0.000000
3671 1 44.902043 41.257923 0.000000
3672 1 45.318758 40.551891 0.000000
3673 1 46.111296 43.399629 0.000000
3674 1 46.528011 42.693597 0.000000
3675 1 47.320549 45.541336 0.000000
3676 1 47.737264 44.835304 0.000000
3677 1 48.529802 47.683042 0.000000
3678 1 48.946517 46.977010 0.000000
3679 1 49.739055 49.824749 0.000000
3680 1 50.155771 49.118716 0.000000
3681 1 50.948309 51.966455 0.000000
3682 1 51.365024 51.260423 0.000000
3683 1 52.157562 54.108162 0.000000
3684 1 52.574277 53.402129 0.000000
3685 1 -8.264206 -57.236967 0.000000
3686 1 -7.847490 -57.942999 0.000000
3687 1 -7.054952 -55.095260 0.000000
3688 1 -6.638237 -55.801292 0.000000
3689 1 -5.845699 -52.953554 0.000000
3690 1 -5.428984 -53.659586 0.000000
3691 1 -4.636446 -50.811847 0.000000
3692 1 -4.219731 -51.517879 0.000000
3693 1 -3.427193 -48.670141 0.000000
3694 1 -3.010478 -49.376173 0.000000
3695 1 -2.217940 -46.528434 0.000000
3696 1 -1.801224 -47.234466 0.000000
3697 1 -1.008686 -44.386728 0.000000
3698 1 -0.591971 -45.092760 0.000000
3699 1 0.200567 -42.245021 0.000000
3700 1 0.617282 -42.951053 0.000000
3701 1 1.409820 -40.103315 0.000000
3702 1 1.826535 -40.809347 0.000000
3703 1 2.619073 -37.961608 0.000000
3704 1 3.035788 -38.667641 0.000000
3705 1 3.828326 -35.819902 0.000000
3706 1 4.245042 -36.525934 0.000000
3707 1 5.037580 -33.678195 0.000000
3708 1 5.454295 -34.384228 0.000000
3709 1 6.246833 -31.536489 0.000000
3710 1 6.663548 -32.242521 0.000000
3711 1 7.456086 -29.394782 0.000000
3712 1 7.872801 -30.100815 0.000000
3713 1 8.665339 -27.253076 0.000000
3714 1 9.082054 -27.959108 0.000000
3715 1 9.874592 -25.111369 0.000000
3716 1 10.291308 -25.817402 0.000000
3717 1 11.083846 -22.969663 0.000000
3718 1 11.500561 -23.675695 0.000000
3719 1 12.293099 -20.827956 0.000000
3720 1 12.709814 -21.533989 0.000000
3721 1 13.502352 -18.686250 0.000000
3722 1 13.919067 -19.392282 0.000000
3723 1 14.711605 -16.544543 0.000000
3724 1 15.128320 -17.250576 0.000000
3725 1 15.920858 -14.402837 0.000000
3726 1 16.337574 -15.108869 0.000000
3727 1 17.130112 -12.261130 0.000000
3728 1 17.546827 -12.967163 0.000000
3729 1 18.339365 -10.119424 0.000000
3730 1 18.756080 -10.825456 0.000000
3731 1 19.548618 -7.977717 0.000000
3732 1 19.965333 -8.683750 0.000000
3733 1 20.757871 -5.836011 0.000000
3734 1 21.174586 -6.542043 0.000000
3735 1 21.967124 -3.694304 0.000000
3736 1 22.383840 -4.400337 0.000000
3737 1 23.176377 -1.552598 0.000000
3738 1 23.593093 -2.258630 0.000000
3739 1 24.385631 0.589109 0.000000
3740 1 24.802346 -0.116924 0.000000
3741 1 25.594884 2.730815 0.000000
3742 1 26.011599 2.024783 0.000000
3743 1 26.804137 4.872522 0.000000
3744 1 27.220852 4.166489 0.000000
3745 1 28.013390 7.014228 0.000000
3746 1 28.430105 6.308196 0.000000
3747 1 29.222643 9.155935 0.000000
3748 1 29.639359 8.449902 0.000000
3749 1 30.431897 11.297641 0.000000
3750 1 30.848612 10.591609 0.000000
3751 1 31.641150 13.439348 0.000000
3752 1 32.057865 12.733315 0.000000
3753 1 32.850403 15.581054 0.000000
3754 1 33.267118 14.875022 0.000000
3755 1 34.059656 17.722761 0.000000
3756 1 34.476371 17.016728 0.000000
3757 1 35.268909 19.864467 0.000000
3758 1 35.685625 19.158435 0.000000
3759 1 36.478163 22.006174 0.000000
3760 1 36.894878 21.300141 0.000000
3761 1 37.687416 24.147880 0.000000
3762 1 38.104131 23.441848 0.000000
3763 1 38.896669 26.289587 0.000000
3764 1 39.313384 25.583554 0.000000
3765 1 40.105922 28.431293 0.000000
3766 1 40.522637 27.725261 0.000000
3767 1 41.315175 30.573000 0.000000
3768 1 41.731891 29.866967 0.000000
3769 1 42.524429 32.714706 0.000000
3770 1 42.941144 32.008674 0.000000
3771 1 43.733682 34.856413 0.000000
3772 1 44.150397 34.150380 0.000000
3773 1 44.942935 36.998119 0.000000
3774 1 45.359650 36.292087 0.000000
3775 1 46.152188 39.139826 0.000000
3776 1 46.568903 38.433793 0.000000
3777 1 47.361441 41.281532 0.000000
3778 1 47.778157 40.575500 0.000000
3779 1 48.570695 43.423239 0.000000
3780 1 48.987410 42.717206 0.000000
3781 1 49.779948 45.564945 0.000000
3782 1 50.196663 44.858913 0.000000
3783 1 50.989201 47.706652 0.000000
3784 1 51.405916 47.000619 0.000000
3785 1 52.198454 49.848358 0.000000
3786 1 52.615169 49.142326 0.000000
3787 1 53.407707 51.990065 0.000000
3788 1 53.824423 51.284032 0.000000
3789 1 55.033676 53.425739 0.000000
3790 1 -5.804807 -57.213357 0.000000
3791 1 -5.388092 -57.919390 0.000000
3792 1 -4.595554 -55.071651 0.000000
3793 1 -4.178838 -55.777683 0.000000
3794 1 -3.386300 -52.929944 0.000000
3795 1 -2.969585 -53.635977 0.000000
3796 1 -2.177047 -50.788238 0.000000
3797 1 -1.760332 -51.494270 0.000000
3798 1 -0.967794 -48.646531 0.000000
3799 1 -0.551079 -49.352564 0.000000
3800 1 0.241459 -46.504825 0.000000
3801 1 0.658174 -47.210857 0.000000
3802 1 1.450712 -44.363118 0.000000
3803 1 1.867428 -45.069151 0.000000
3804 1 2.659966 -42.221412 0.000000
3805 1 3.076681 -42.927444 0.000000
3806 1 3.869219 -40.079705 0.000000
3807 1 4.285934 -40.785738 0.000000
3808 1 5.078472 -37.937999 0.000000
3809 1 5.495187 -38.644031 0.000000
3810 1 6.287725 -35.796292 0.000000
3811 1 6.704440 -36.502325 0.000000
3812 1 7.496978 -33.654586 0.000000
3813 1 7.913694 -34.360618 0.000000
3814 1 8.706232 -31.512879 0.000000
3815 1 9.122947 -32.218912 0.000000
3816 1 9.915485 -29.371173 0.000000
3817 1 10.332200 -30.077205 0.000000
3818 1 11.124738 -27.229466 0.000000
3819 1 11.541453 -27.935499 0.000000
3820 1 12.333991 -25.087760 0.000000
3821 1 12.750706 -25.793792 0.000000
3822 1 13.543244 -22.946053 0.000000
3823 1 13.959960 -23.652086 0.000000
3824 1 14.752498 -20.804347 0.000000
3825 1 15.169213 -21.510379 0.000000
3826 1 15.961751 -18.662640 0.000000
3827 1 16.378466 -19.368673 0.000000
3828 1 17.171004 -16.520934 0.000000
3829 1 17.587719 -17.226966 0.000000
3830 1 18.380257 -14.379227 0.000000
3831 1 18.796972 -15.085260 0.000000
3832 1 19.589510 -12.237521 0.000000
3833 1 20.006226 -12.943553 0.000000
3834 1 20.798764 -10.095814 0.000000
3835 1 21.215479 -10.801847 0.000000
3836 1 22.008017 -7.954108 0.000000
3837 1 22.424732 -8.660140 0.000000
3838 1 23.217270 -5.812401 0.000000
3839 1 23.633985 -6.518434 0.000000
3840 1 24.426523 -3.670695 0.000000
3841 1 24.843238 -4.376727 0.000000
3842 1 25.635776 -1.528988 0.000000
3843 1 26.052492 -2.235021 0.000000
3844 1 26.845030 0.612718 0.000000
3845 1 27.261745 -0.093314 0.000000
3846 1 28.054283 2.754425 0.000000
3847 1 28.470998 2.048392 0.000000
3848 1 29.263536 4.896131 0.000000
3849 1 29.680251 4.190099 0.000000
3850 1 30.472789 7.037838 0.000000
3851 1 30.889504 6.331805 0.000000
3852 1 31.682042 9.179544 0.000000
3853 1 32.098758 8.473512 0.000000
3854 1 32.891296 11.321251 0.000000
3855 1 33.308011 10.615218 0.000000
3856 1 34.100549 13.462957 0.000000
3857 1 34.517264 12.756925 0.000000
3858 1 35.309802 15.604664 0.000000
3859 1 35.726517 14.898631 0.000000
3860 1 36.519055 17.746370 0.000000
3861 1 36.935770 17.040338 0.000000
3862 1 37.728308 19.888077 0.000000
3863 1 38.145024 19.182044 0.000000
3864 1 38.937561 22.029783 0.000000
3865 1 39.354277 21.323751 0.000000
3866 1 40.146815 24.171489 0.000000
3867 1 40.563530 23.465457 0.000000
3868 1 41.356068 26.313196 0.000000
3869 1 41.772783 25.607164 0.000000
3870 1 42.565321 28.454902 0.000000
3871 1 42.982036 27.748870 0.000000
3872 1 43.774574 30.596609 0.000000
3873 1 44.191289 29.890577 0.000000
3874 1 44.983827 32.738315 0.000000
3875 1 45.400543 32.032283 0.000000
3876 1 46.193081 34.880022 0.000000
3877 1 46.609796 34.173990 0.000000
3878 1 47.402334 37.021728 0.000000
3879 1 47.819049 36.315696 0.000000
3880 1 48.611587 39.163435 0.000000
3881 1 49.028302 38.457403 0.000000
3882 1 49.820840 41.305141 0.000000
3883 1 50.237555 40.599109 0.000000
3884 1 51.030093 43.446848 0.000000
3885 1 51.446809 42.740816 0.000000
3886 1 52.239347 45.588554 0.000000
3887 1 52.656062 44.882522 0.000000
3888 1 53.448600 47.730261 0.000000
3889 1 53.865315 47.024229 0.000000
3890 1 54.657853 49.871967 0.000000
3891 1 55.074568 49.165935 0.000000
3892 1 55.867106 52.013674 0.000000
3893 1 56.283821 51.307642 0.000000
3894 1 -3.345408 -57.189748 0.000000
3895 1 -2.928693 -57.895780 0.000000
3896 1 -2.136155 -55.048042 0.000000
3897 1 -1.719440 -55.754074 0.000000
3898 1 -0.926902 -52.906335 0.000000
3899 1 -0.510186 -53.612367 0.000000
3900 1 0.282352 -50.764629 0.000000
3901 1 0.699067 -51.470661 0.000000
3902 1 1.491605 -48.622922 0.000000
3903 1 1.908320 -49.328954 0.000000
3904 1 2.700858 -46.481216 0.000000
3905 1 3.117573 -47.187248 0.000000
3906 1 3.910111 -44.339509 0.000000
3907 1 4.326826 -45.045541 0.000000
3908 1 5.119364 -42.197803 0.000000
3909 1 5.536080 -42.903835 0.000000
3910 1 6.328618 -40.056096 0.000000
3911 1 6.745333 -40.762128 0.000000
3912 1 7.537871 -37.914390 0.000000
3913 1 7.954586 -38.620422 0.000000
3914 1 8.747124 -35.772683 0.000000
3915 1 9.163839 -36.478715 0.000000
3916 1 9.956377 -33.630977 0.000000
3917 1 10.373092 -34.337009 0.000000
3918 1 11.165630 -31.489270 0.000000
3919 1 11.582346 -32.195303 0.000000
3920 1 12.374884 -29.347564 0.000000
3921 1 12.791599 -30.053596 0.000000
3922 1 13.584137 -27.205857 0.000000
3923 1 14.000852 -27.911890 0.000000
3924 1 14.793390 -25.064151 0.000000
3925 1 15.210105 -25.770183 0.000000
3926 1 16.002643 -22.922444 0.000000
3927 1 16.419358 -23.628477 0.000000
3928 1 17.211896 -20.780738 0.000000
3929 1 17.628612 -21.486770 0.000000
3930 1 18.421150 -18.639031 0.000000
3931 1 18.837865 -19.345064 0.000000
3932 1 19.630403 -16.497325 0.000000
3933 1 20.047118 -17.203357 0.000000
3934 1 20.839656 -14.355618 0.000000
3935 1 21.256371 -15.061651 0.000000
3936 1 22.048909 -12.213912 0.000000
3937 1 22.465624 -12.919944 0.000000
3938 1 23.258162 -10.072205 0.000000
3939 1 23.674878 -10.778238 0.000000
3940 1 24.467416 -7.930499 0.000000
3941 1 24.884131 -8.636531 0.000000
3942 1 25.676669 -5.788792 0.000000
3943 1 26.093384 -6.494825 0.000000
3944 1 26.885922 -3.647086 0.000000
3945 1 27.302637 -4.353118 0.000000
3946 1 28.095175 -1.505379 0.000000
3947 1 28.511890 -2.211412 0.000000
3948 1 29.304428 0.636327 0.000000
3949 1 29.721144 -0.069705 0.000000
3950 1 30.513682 2.778034 0.000000
3951 1 30.930397 2.072001 0.000000
3952 1 31.722935 4.919740 0.000000
3953 1 32.139650 4.213708 0.000000
3954 1 32.932188 7.061447 0.000000
3955 1 33.348903 6.355414 0.000000
3956 1 34.141441 9.203153 0.000000
3957 1 34.558156 8.497121 0.000000
3958 1 35.350694 11.344860 0.000000
3959 1 35.767410 10.638827 0.000000
3960 1 36.559948 13.486566 0.000000
3961 1 36.976663 12.780534 0.000000
3962 1 37.769201 15.628273 0.000000
3963 1 38.185916 14.922240 0.000000
3964 1 38.978454 17.769979 0.000000
3965 1 39.395169 17.063947 0.000000
3966 1 40.187707 19.911686 0.000000
3967 1 40.604422 19.205653 0.000000
3968 1 41.396960 22.053392 0.000000
3969 1 41.813676 21.347360 0.000000
3970 1 42.606214 24.195099 0.000000
3971 1 43.022929 23.489066 0.000000
3972 1 43.815467 26.336805 0.000000
3973 1 44.232182 25.630773 0.000000
3974 1 45.024720 28.478512 0.000000
3975 1 45.441435 27.772479 0.000000
3976 1 46.233973 30.620218 0.000000
3977 1 46.650688 29.914186 0.000000
3978 1 47.443226 32.761925 0.000000
3979 1 47.859942 32.055892 0.000000
3980 1 48.652479 34.903631 0.000000
3981 1 49.069195 34.197599 0.000000
3982 1 49.861733 37.045338 0.000000
3983 1 50.278448 36.339305 0.000000
3984 1 51.070986 39.187044 0.000000
3985 1 51.487701 38.481012 0.000000
3986 1 52.280239 41.328751 0.000000
3987 1 52.696954 40.622718 0.000000
3988 1 53.489492 43.470457 0.000000
3989 1 53.906207 42.764425 0.000000
3990 1 54.698745 45.612164 0.000000
3991 1 55.115461 44.906131 0.000000
3992 1 55.907999 47.753870 0.000000
3993 1 56.324714 47.047838 0.000000
3994 1 57.117252 49.895577 0.000000
3995 1 57.533967 49.189544 0.000000
3996 1 -0.886009 -57.166139 0.000000
3997 1 -0.469294 -57.872171 0.000000
3998 1 0.323244 -55.024432 0.000000
3999 1 0.739959 -55.730465 0.000000
4000 1 1.532497 -52.882726 0.000000
4001 1 1.949212 -53.588758 0.000000
4002 1 2.741750 -50.741019 0.000000
4003 1 3.158466 -51.447052 0.000000
4004 1 3.951004 -48.599313 0.000000
4005 1 4.367719 -49.305345 0.000000
4006 1 5.160257 -46.457606 0.000000
4007 1 5.576972 -47.163639 0.000000
4008 1 6.369510 -44.315900 0.000000
4009 1 6.786225 -45.021932 0.000000
4010 1 7.578763 -42.174193 0.000000
4011 1 7.995478 -42.880226 0.000000
4012 1 8.788016 -40.032487 0.000000
4013 1 9.204732 -40.738519 0.000000
4014 1 9.997270 -37.890780 0.000000
4015 1 10.413985 -38.596813 0.000000
4016 1 11.206523 -35.749074 0.000000
4017 1 11.623238 -36.455106 0.000000
4018 1 12.415776 -33.607367 0.000000
4019 1 12.832491 -34.313400 0.000000
4020 1 13.625029 -31.465661 0.000000
4021 1 14.041744 -32.171693 0.000000
4022 1 14.834282 -29.323954 0.000000
4023 1 15.250998 -30.029987 0.000000
4024 1 16.043536 -27.182248 0.000000
4025 1 16.460251 -27.888280 0.000000
4026 1 17.252789 -25.040541 0.000000
4027 1 17.669504 -25.746574 0.000000
4028 1 18.462042 -22.898835 0.000000
4029 1 18.878757 -23.604867 0.000000
4030 1 19.671295 -20.757128 0.000000
4031 1 20.088010 -21.463161 0.000000
4032 1 20.880548 -18.615422 0.000000
4033 1 21.297264 -19.321454 0.000000
4034 1 22.089802 -16.473715 0.000000
4035 1 22.506517 -17.179748 0.000000
4036 1 23.299055 -14.332009 0.000000
4037 1 23.715770 -15.038041 0.000000
4038 1 24.508308 -12.190302 0.000000
4039 1 24.925023 -12.896335 0.000000
4040 1 25.717561 -10.048596 0.000000
4041 1 26.134276 -10.754628 0.000000
4042 1 26.926814 -7.906889 0.000000
4043 1 27.343530 -8.612922 0.000000
4044 1 28.136068 -5.765183 0.000000
4045 1 28.552783 -6.471215 0.000000
4046 1 29.345321 -3.623476 0.000000
4047 1 29.762036 -4.329509 0.000000
4048 1 30.554574 -1.481770 0.000000
4049 1 30.971289 -2.187802 0.000000
4050 1 31.763827 0.659937 0.000000
4051 1 32.180542 -0.046096 0.000000
4052 1 32.973080 2.801643 0.000000
4053 1 33.389796 2.095611 0.000000
4054 1 34.182334 4.943350 0.000000
4055 1 34.599049 4.237317 0.000000
4056 1 35.391587 7.085056 0.000000
4057 1 35.808302 6.379024 0.000000
4058 1 36.600840 9.226763 0.000000
4059 1 37.017555 8.520730 0.000000
4060 1 37.810093 11.368469 0.000000
4061 1 38.226808 10.662437 0.000000
4062 1 39.019346 13.510176 0.000000
4063 1 39.436062 12.804143 0.000000
4064 1 40.228600 15.651882 0.000000
4065 1 40.645315 14.945850 0.000000
4066 1 41.437853 17.793589 0.000000
4067 1 41.854568 17.087556 0.000000
4068 1 42.647106 19.935295 0.000000
4069 1 43.063821 19.229263 0.000000
4070 1 43.856359 22.077002 0.000000
4071 1 44.273074 21.370969 0.000000
4072 1 45.065612 24.218708 0.000000
4073 1 45.482328 23.512676 0.000000
4074 1 46.274866 26.360415 0.000000
4075 1 46.691581 25.654382 0.000000
4076 1 47.484119 28.502121 0.000000
4077 1 47.900834 27.796089 0.000000
4078 1 48.693372 30.643827 0.000000
4079 1 49.110087 29.937795 0.000000
4080 1 49.902625 32.785534 0.000000
4081 1 50.319340 32.079502 0.000000
4082 1 51.111878 34.927240 0.000000
4083 1 51.528594 34.221208 0.000000
4084 1 52.321132 37.068947 0.000000
4085 1 52.737847 36.362915 0.000000
4086 1 53.530385 39.210653 0.000000
4087 1 53.947100 38.504621 0.000000
4088 1 54.739638 41.352360 0.000000
4089 1 55.156353 40.646328 0.000000
4090 1 55.948891 43.494066 0.000000
4091 1 56.365606 42.788034 0.000000
4092 1 57.158144 45.635773 0.000000
4093 1 57.574860 44.929741 0.000000
4094 1 58.367398 47.777479 0.000000
4095 1 58.784113 47.071447 0.000000
4096 1 1.573390 -57.142530 0.000000
4097 1 1.990105 -57.848562 0.000000
4098 1 2.782643 -55.000823 0.000000
4099 1 3.199358 -55.706855 0.000000
4100 1 3.991896 -52.859117 0.000000
4101 1 4.408611 -53.565149 0.000000
4102 1 5.201149 -50.717410 0.000000
4103 1 5.617865 -51.423442 0.000000
4104 1 6.410402 -48.575704 0.000000
4105 1 6.827118 -49.281736 0.000000
4106 1 7.619656 -46.433997 0.000000
4107 1 8.036371 -47.140029 0.000000
4108 1 8.828909 -44.292291 0.000000
4109 1 9.245624 -44.998323 0.000000
4110 1 10.038162 -42.150584 0.000000
4111 1 10.454877 -42.856616 0.000000
4112 1 11.247415 -40.008878 0.000000
4113 1 11.664130 -40.714910 0.000000
4114 1 12.456668 -37.867171 0.000000
4115 1 12.873384 -38.573203 0.000000
4116 1 13.665922 -35.725465 0.000000
4117 1 14.082637 -36.431497 0.000000
4118 1 14.875175 -33.583758 0.000000
4119 1 15.291890 -34.289790 0.000000
4120 1 16.084428 -31.442052 0.000000
4121 1 16.501143 -32.148084 0.000000
4122 1 17.293681 -29.300345 0.000000
4123 1 17.710396 -30.006377 0.000000
4124 1 18.502934 -27.158639 0.000000
4125 1 18.919650 -27.864671 0.000000
4126 1 19.712188 -25.016932 0.000000
4127 1 20.128903 -25.722965 0.000000
4128 1 20.921441 -22.875226 0.000000
4129 1 21.338156 -23.581258 0.000000
4130 1 22.130694 -20.733519 0.000000
4131 1 22.547409 -21.439552 0.000000
4132 1 23.339947 -18.591813 0.000000
4133 1 23.756662 -19.297845 0.000000
4134 1 24.549200 -16.450106 0.000000
4135 1 24.965916 -17.156139 0.000000
4136 1 25.758454 -14.308400 0.000000
4137 1 26.175169 -15.014432 0.000000
4138 1 26.967707 -12.166693 0.000000
4139 1 27.384422 -12.872726 0.000000
4140 1 28.176960 -10.024987 0.000000
4141 1 28.593675 -10.731019 0.000000
4142 1 29.386213 -7.883280 0.000000
4143 1 29.802928 -8.589313 0.000000
4144 1 30.595466 -5.741574 0.000000
4145 1 31.012182 -6.447606 0.000000
4146 1 31.804720 -3.599867 0.000000
4147 1 32.221435 -4.305900 0.000000
4148 1 33.013973 -1.458161 0.000000
4149 1 33.430688 -2.164193 0.000000
4150 1 34.223226 0.683546 0.000000
4151 1 34.639941 -0.022487 0.000000
4152 1 35.432479 2.825252 0.000000
4153 1 35.849194 2.119220 0.000000
4154 1 36.641732 4.966959 0.000000
4155 1 37.058448 4.260926 0.000000
4156 1 37.850986 7.108665 0.000000
4157 1 38.267701 6.402633 0.000000
4158 1 39.060239 9.250372 0.000000
4159 1 39.476954 8.544339 0.000000
4160 1 40.269492 11.392078 0.000000
4161 1 40.686207 10.686046 0.000000
4162 1 41.478745 13.533785 0.000000
4163 1 41.895460 12.827752 0.000000
4164 1 42.687998 15.675491 0.000000
4165 1 43.104714 14.969459 0.000000
4166 1 43.897252 17.817198 0.000000
4167 1 44.313967 17.111165 0.000000
4168 1 45.106505 19.958904 0.000000
4169 1 45.523220 19.252872 0.000000
4170 1 46.315758 22.100611 0.000000
4171 1 46.732473 21.394578 0.000000
4172 1 47.525011 24.242317 0.000000
4173 1 47.941726 23.536285 0.000000
4174 1 48.734264 26.384024 0.000000
4175 1 49.150980 25.677991 0.000000
4176 1 49.943518 28.525730 0.000000
4177 1 50.360233 27.819698 0.000000
4178 1 51.152771 30.667437 0.000000
4179 1 51.569486 29.961404 0.000000
4180 1 52.362024 32.809143 0.000000
4181 1 52.778739 32.103111 0.000000
4182 1 53.571277 34.950850 0.000000
4183 1 53.987992 34.244817 0.000000
4184 1 54.780530 37.092556 0.000000
4185 1 55.197246 36.386524 0.000000
4186 1 55.989784 39.234263 0.000000
4187 1 56.406499 38.528230 0.000000
4188 1 57.199037 41.375969 0.000000
4189 1 57.615752 40.669937 0.000000
4190 1 58.408290 43.517676 0.000000
4191 1 58.825005 42.811643 0.000000
4192 1 59.617543 45.659382 0.000000
4193 1 60.034258 44.953350 0.000000
4194 1 4.032789 -57.118920 0.000000
4195 1 4.449504 -57.824953 0.000000
4196 1 5.242042 -54.977214 0.000000
4197 1 5.658757 -55.683246 0.000000
4198 1 6.451295 -52.835507 0.000000
4199 1 6.868010 -53.541540 0.000000
4200 1 7.660548 -50.693801 0.000000
4201 1 8.077263 -51.399833 0.000000
4202 1 8.869801 -48.552094 0.000000
4203 1 9.286517 -49.258127 0.000000
4204 1 10.079055 -46.410388 0.000000
4205 1 10.495770 -47.116420 0.000000
4206 1 11.288308 -44.268681 0.000000
4207 1 11.705023 -44.974714 0.000000
4208 1 12.497561 -42.126975 0.000000
4209 1 12.914276 -42.833007 0.000000
4210 1 13.706814 -39.985268 0.000000
4211 1 14.123529 -40.691301 0.000000
4212 1 14.916067 -37.843562 0.000000
4213 1 15.332783 -38.549594 0.000000
4214 1 16.125320 -35.701855 0.000000
4215 1 16.542036 -36.407888 0.000000
4216 1 17.334574 -33.560149 0.000000
4217 1 17.751289 -34.266181 0.000000
4218 1 18.543827 -31.418442 0.000000
4219 1 18.960542 -32.124475 0.000000
4220 1 19.753080 -29.276736 0.000000
4221 1 20.169795 -29.982768 0.000000
4222 1 20.962333 -27.135029 0.000000
4223 1 21.379048 -27.841062 0.000000
4224 1 22.171586 -24.993323 0.000000
4225 1 22.588302 -25.699355 0.000000
4226 1 23.380840 -22.851616 0.000000
4227 1 23.797555 -23.557649 0.000000
4228 1 24.590093 -20.709910 0.000000
4229 1 25.006808 -21.415942 0.000000
4230 1 25.799346 -18.568203 0.000000
4231 1 26.216061 -19.274236 0.000000
4232 1 27.008599 -16.426497 0.000000
4233 1 27.425314 -17.132529 0.000000
4234 1 28.217852 -14.284790 0.000000
4235 1 28.634568 -14.990823 0.000000
4236 1 29.427106 -12.143084 0.000000
4237 1 29.843821 -12.849116 0.000000
4238 1 30.636359 -10.001377 0.000000
4239 1 31.053074 -10.707410 0.000000
4240 1 31.845612 -7.859671 0.000000
4241 1 32.262327 -8.565703 0.000000
4242 1 33.054865 -5.717964 0.000000
4243 1 33.471580 -6.423997 0.000000
4244 1 34.264118 -3.576258 0.000000
4245 1 34.680834 -4.282290 0.000000
4246 1 35.473372 -1.434551 0.000000
4247 1 35.890087 -2.140584 0.000000
4248 1 36.682625 0.707155 0.000000
4249 1 37.099340 0.001123 0.000000
4250 1 37.891878 2.848862 0.000000
4251 1 38.308593 2.142829 0.000000
4252 1 39.101131 4.990568 0.000000
4253 1 39.517846 4.284536 0.000000
4254 1 40.310384 7.132275 0.000000
4255 1 40.727100 6.426242 0.000000
4256 1 41.519638 9.273981 0.000000
4257 1 41.936353 8.567949 0.000000
4258 1 42.728891 11.415688 0.000000
4259 1 43.145606 10.709655 0.000000
4260 1 43.938144 13.557394 0.000000
4261 1 44.354859 12.851362 0.000000
4262 1 45.147397 15.699101 0.000000
4263 1 45.564112 14.993068 0.000000
4264 1 46.356650 17.840807 0.000000
4265 1 46.773366 17.134775 0.000000
4266 1 47.565904 19.982514 0.000000
4267 1 47.982619 19.276481 0.000000
4268 1 48.775157 22.124220 0.000000
4269 1 49.191872 21.418188 0.000000
4270 1 49.984410 24.265927 0.000000
4271 1 50.401125 23.559894 0.000000
4272 1 51.193663 26.407633 0.000000
4273 1 51.610378 25.701601 0.000000
4274 1 52.402916 28.549340 0.000000
4275 1 52.819632 27.843307 0.000000
4276 1 53.612170 30.691046 0.000000
4277 1 54.028885 29.985014 0.000000
4278 1 54.821423 32.832753 0.000000
4279 1 55.238138 32.126720 0.000000
4280 1 56.030676 34.974459 0.000000
4281 1 56.447391 34.268427 0.000000
4282 1 57.239929 37.116165 0.000000
4283 1 57.656644 36.410133 0.000000
4284 1 58.449182 39.257872 0.000000
4285 1 58.865898 38.551840 0.000000
4286 1 59.658436 41.399578 0.000000
4287 1 60.075151 40.693546 0.000000
4288 1 60.867689 43.541285 0.000000
4289 1 61.284404 42.835253 0.000000
4290 1 6.492187 -57.095311 0.000000
4291 1 6.908903 -57.801343 0.000000
4292 1 7.701441 -54.953604 0.000000
4293 1 8.118156 -55.659637 0.000000
4294 1 8.910694 -52.811898 0.000000
4295 1 9.327409 -53.517930 0.000000
4296 1 10.119947 -50.670192 0.000000
4297 1 10.536662 -51.376224 0.000000
4298 1 11.329200 -48.528485 0.000000
4299 1 11.745915 -49.234517 0.000000
4300 1 12.538453 -46.386779 0.000000
4301 1 12.955169 -47.092811 0.000000
4302 1 13.747707 -44.245072 0.000000
4303 1 14.164422 -44.951104 0.000000
4304 1 14.956960 -42.103366 0.000000
4305 1 15.373675 -42.809398 0.000000
4306 1 16.166213 -39.961659 0.000000
4307 1 16.582928 -40.667691 0.000000
4308 1 17.375466 -37.819953 0.000000
4309 1 17.792181 -38.525985 0.000000
4310 1 18.584719 -35.678246 0.000000
4311 1 19.001435 -36.384278 0.000000
4312 1 19.793973 -33.536540 0.000000
4313 1 20.210688 -34.242572 0.000000
4314 1 21.003226 -31.394833 0.000000
4315 1 21.419941 -32.100865 0.000000
4316 1 22.212479 -29.253127 0.000000
4317 1 22.629194 -29.959159 0.000000
4318 1 23.421732 -27.111420 0.000000
4319 1 23.838447 -27.817452 0.000000
4320 1 24.630985 -24.969714 0.000000
4321 1 25.047701 -25.675746 0.000000
4322 1 25.840239 -22.828007 0.000000
4323 1 26.256954 -23.534039 0.000000
4324 1 27.049492 -20.686301 0.000000
4325 1 27.466207 -21.392333 0.000000
4326 1 28.258745 -18.544594 0.000000
4327 1 28.675460 -19.250627 0.000000
4328 1 29.467998 -16.402888 0.000000
4329 1 29.884713 -17.108920 0.000000
4330 1 30.677251 -14.261181 0.000000
4331 1 31.093967 -14.967214 0.000000
4332 1 31.886504 -12.119475 0.000000
4333 1 32.303220 -12.825507 0.000000
4334 1 33.095758 -9.977768 0.000000
4335 1 33.512473 -10.683801 0.000000
4336 1 34.305011 -7.836062 0.000000
4337 1 34.721726 -8.542094 0.000000
4338 1 35.514264 -5.694355 0.000000
4339 1 35.930979 -6.400388 0.000000
4340 1 36.723517 -3.552649 0.000000
4341 1 37.140232 -4.258681 0.000000
4342 1 37.932770 -1.410942 0.000000
4343 1 38.349486 -2.116975 0.000000
4344 1 39.142024 0.730764 0.000000
4345 1 39.558739 0.024732 0.000000
4346 1 40.351277 2.872471 0.000000
4347 1 40.767992 2.166438 0.000000
4348 1 41.560530 5.014177 0.000000
4349 1 41.977245 4.308145 0.000000
4350 1 42.769783 7.155884 0.000000
4351 1 43.186498 6.449851 0.000000
4352 1 43.979036 9.297590 0.000000
4353 1 44.395752 8.591558 0.000000
4354 1 45.188290 11.439297 0.000000
4355 1 45.605005 10.733264 0.000000
4356 1 46.397543 13.581003 0.000000
4357 1 46.814258 12.874971 0.000000
4358 1 47.606796 15.722710 0.000000
4359 1 48.023511 15.016677 0.000000
4360 1 48.816049 17.864416 0.000000
4361 1 49.232764 17.158384 0.000000
4362 1 50.025302 20.006123 0.000000
4363 1 50.442018 19.300090 0.000000
4364 1 51.234556 22.147829 0.000000
4365 1 51.651271 21.441797 0.000000
4366 1 52.443809 24.289536 0.000000
4367 1 52.860524 23.583503 0.000000
4368 1 53.653062 26.431242 0.000000
4369 1 54.069777 25.725210 0.000000
4370 1 54.862315 28.572949 0.000000
4371 1 55.279030 27.866916 0.000000
4372 1 56.071568 30.714655 0.000000
4373 1 56.488284 30.008623 0.000000
4374 1 57.280822 32.856362 0.000000
4375 1 57.697537 32.150329 0.000000
4376 1 58.490075 34.998068 0.000000
4377 1 58.906790 34.292036 0.000000
4378 1 59.699328 37.139775 0.000000
4379 1 60.116043 36.433742 0.000000
4380 1 60.908581 39.281481 0.000000
4381 1 61.325296 38.575449 0.000000
4382 1 62.117834 41.423188 0.000000
4383 1 62.534550 40.717155 0.000000
4384 1 63.327088 43.564894 0.000000
4385 1 63.743803 42.858862 0.000000
4386 1 8.951586 -57.071702 0.000000
4387 1 9.368301 -57.777734 0.000000
4388 1 10.160839 -54.929995 0.000000
4389 1 10.577555 -55.636028 0.000000
4390 1 11.370093 -52.788289 0.000000
4391 1 11.786808 -53.494321 0.000000
4392 1 12.579346 -50.646582 0.000000
4393 1 12.996061 -51.352615 0.000000
4394 1 13.788599 -48.504876 0.000000
4395 1 14.205314 -49.210908 0.000000
4396 1 14.997852 -46.363169 0.000000
4397 1 15.414567 -47.069202 0.000000
4398 1 16.207105 -44.221463 0.000000
4399 1 16.623821 -44.927495 0.000000
4400 1 17.416359 -42.079756 0.000000
4401 1 17.833074 -42.785789 0.000000
4402 1 18.625612 -39.938050 0.000000
4403 1 19.042327 -40.644082 0.000000
4404 1 19.834865 -37.796343 0.000000
4405 1 20.251580 -38.502376 0.000000
4406 1 21.044118 -35.654637 0.000000
4407 1 21.460833 -36.360669 0.000000
4408 1 22.253371 -33.512930 0.000000
4409 1 22.670087 -34.218963 0.000000
4410 1 23.462625 -31.371224 0.000000
4411 1 23.879340 -32.077256 0.000000
4412 1 24.671878 -29.229517 0.000000
4413 1 25.088593 -29.935550 0.000000
4414 1 25.881131 -27.087811 0.000000
4415 1 26.297846 -27.793843 0.000000
4416 1 27.090384 -24.946104 0.000000
4417 1 27.507099 -25.652137 0.000000
4418 1 28.299637 -22.804398 0.000000
4419 1 28.716353 -23.510430 0.000000
4420 1 29.508891 -20.662691 0.000000
4421 1 29.925606 -21.368724 0.000000
4422 1 30.718144 -18.520985 0.000000
4423 1 31.134859 -19.227017 0.000000
4424 1 31.927397 -16.379278 0.000000
4425 1 32.344112 -17.085311 0.000000
4426 1 33.136650 -14.237572 0.000000
4427 1 33.553365 -14.943604 0.000000
4428 1 34.345903 -12.095865 0.000000
4429 1 34.762619 -12.801898 0.000000
4430 1 35.555157 -9.954159 0.000000
4431 1 35.971872 -10.660191 0.000000
4432 1 36.764410 -7.812452 0.000000
4433 1 37.181125 -8.518485 0.000000
4434 1 37.973663 -5.670746 0.000000
4435 1 38.390378 -6.376778 0.000000
4436 1 39.182916 -3.529039 0.000000
4437 1 39.599631 -4.235072 0.000000
4438 1 40.392169 -1.387333 0.000000
4439 1 40.808885 -2.093365 0.000000
4440 1 41.601422 0.754374 0.000000
4441 1 42.018138 0.048341 0.000000
4442 1 42.810676 2.896080 0.000000
4443 1 43.227391 2.190048 0.000000
4444 1 44.019929 5.037787 0.000000
4445 1 44.436644 4.331754 0.000000
4446 1 45.229182 7.179493 0.000000
4447 1 45.645897 6.473461 0.000000
4448 1 46.438435 9.321200 0.000000
4449 1 46.855150 8.615167 0.000000
4450 1 47.647688 11.462906 0.000000
4451 1 48.064404 10.756874 0.000000
4452 1 48.856942 13.604613 0.000000
4453 1 49.273657 12.898580 0.000000
4454 1 50.066195 15.746319 0.000000
4455 1 50.482910 15.040287 0.000000
4456 1 51.275448 17.888026 0.000000
4457 1 51.692163 17.181993 0.000000
4458 1 52.484701 20.029732 0.000000
4459 1 52.901416 19.323700 0.000000
4460 1 53.693954 22.171439 0.000000
4461 1 54.110670 21.465406 0.000000
4462 1 54.903208 24.313145 0.000000
4463 1 55.319923 23.607113 0.000000
4464 1 56.112461 26.454852 0.000000
4465 1 56.529176 25.748819 0.000000
4466 1 57.321714 28.596558 0.000000
4467 1 57.738429 27.890526 0.000000
4468 1 58.530967 30.738265 0.000000
4469 1 58.947682 30.032232 0.000000
4470 1 59.740220 32.879971 0.000000
4471 1 60.156936 32.173939 0.000000
4472 1 60.949474 35.021678 0.000000
4473 1 61.366189 34.315645 0.000000
4474 1 62.158727 37.163384 0.000000
4475 1 62.575442 36.457352 0.000000
4476 1 63.367980 39.305091 0.000000
4477 1 63.784695 38.599058 0.000000
4478 1 64.577233 41.446797 0.000000
4479 1 64.993948 40.740765 0.000000
4480 1 11.410985 -57.048092 0.000000
4481 1 11.827700 -57.754125 0.000000
4482 1 12.620238 -54.906386 0.000000
4483 1 13.036953 -55.612418 0.000000
4484 1 13.829491 -52.764679 0.000000
4485 1 14.246207 -53.470712 0.000000
4486 1 15.038745 -50.622973 0.000000
4487 1 15.455460 -51.329005 0.000000
4488 1 16.247998 -48.481266 0.000000
4489 1 16.664713 -49.187299 0.000000
4490 1 17.457251 -46.339560 0.000000
4491 1 17.873966 -47.045592 0.000000
4492 1 18.666504 -44.197854 0.000000
4493 1 19.083219 -44.903886 0.000000
4494 1 19.875757 -42.056147 0.000000
4495 1 20.292473 -42.762179 0.000000
4496 1 21.085011 -39.914441 0.000000
4497 1 21.501726 -40.620473 0.000000
4498 1 22.294264 -37.772734 0.000000
4499 1 22.710979 -38.478766 0.000000
4500 1 23.503517 -35.631028 0.000000
4501 1 23.920232 -36.337060 0.000000
4502 1 24.712770 -33.489321 0.000000
4503 1 25.129485 -34.195353 0.000000
4504 1 25.922023 -31.347615 0.000000
4505 1 26.338739 -32.053647 0.000000
4506 1 27.131277 -29.205908 0.000000
4507 1 27.547992 -29.911940 0.000000
4508 1 28.340530 -27.064202 0.000000
4509 1 28.757245 -27.770234 0.000000
4510 1 29.549783 -24.922495 0.000000
4511 1 29.966498 -25.628527 0.000000
4512 1 30.759036 -22.780789 0.000000
4513 1 31.175751 -23.486821 0.000000
4514 1 31.968289 -20.639082 0.000000
4515 1 32.385005 -21.345114 0.000000
4516 1 33.177543 -18.497376 0.000000
4517 1 33.594258 -19.203408 0.000000
4518 1 34.386796 -16.355669 0.000000
4519 1 34.803511 -17.061701 0.000000
4520 1 35.596049 -14.213963 0.000000
4521 1 36.012764 -14.919995 0.000000
4522 1 36.805302 -12.072256 0.000000
4523 1 37.222017 -12.778289 0.000000
4524 1 38.014555 -9.930550 0.000000
4525 1 38.431271 -10.636582 0.000000
4526 1 39.223809 -7.788843 0.000000
4527 1 39.640524 -8.494876 0.000000
4528 1 40.433062 -5.647137 0.000000
4529 1 40.849777 -6.353169 0.000000
4530 1 41.642315 -3.505430 0.000000
4531 1 42.059030 -4.211463 0.000000
4532 1 42.851568 -1.363724 0.000000
4533 1 43.268283 -2.069756 0.000000
4534 1 44.060821 0.777983 0.000000
4535 1 44.477537 0.071950 0.000000
4536 1 45.270075 2.919689 0.000000
4537 1 45.686790 2.213657 0.000000
4538 1 46.479328 5.061396 0.000000
4539 1 46.896043 4.355363 0.000000
4540 1 47.688581 7.203102 0.000000
4541 1 48.105296 6.497070 0.000000
4542 1 48.897834 9.344809 0.000000
4543 1 49.314549 8.638776 0.000000
4544 1 50.107087 11.486515 0.000000
4545 1 50.523803 10.780483 0.000000
4546 1 51.316341 13.628222 0.000000
4547 1 51.733056 12.922189 0.000000
4548 1 52.525594 15.769928 0.000000
4549 1 52.942309 15.063896 0.000000
4550 1 53.734847 17.911635 0.000000
4551 1 54.151562 17.205602 0.000000
4552 1 54.944100 20.053341 0.000000
4553 1 55.360815 19.347309 0.000000
4554 1 56.153353 22.195048 0.000000
4555 1 56.570069 21.489015 0.000000
4556 1 57.362606 24.336754 0.000000
4557 1 57.779322 23.630722 0.000000
4558 1 58.571860 26.478461 0.000000
4559 1 58.988575 25.772428 0.000000
4560 1 59.781113 28.620167 0.000000
4561 1 60.197828 27.914135 0.000000
4562 1 60.990366 30.761874 0.000000
4563 1 61.407081 30.055841 0.000000
4564 1 62.199619 32.903580 0.000000
4565 1 62.616334 32.197548 0.000000
4566 1 63.408872 35.045287 0.000000
4567 1 63.825588 34.339254 0.000000
4568 1 64.618126 37.186993 0.000000
4569 1 65.034841 36.480961 0.000000
4570 1 65.827379 39.328700 0.000000
4571 1 66.244094 38.622667 0.000000
4572 1 13.870384 -57.024483 0.000000
4573 1 14.287099 -57.730516 0.000000
4574 1 15.079637 -54.882777 0.000000
4575 1 15.496352 -55.588809 0.000000
4576 1 16.288890 -52.741070 0.000000
4577 1 16.705605 -53.447103 0.000000
4578 1 17.498143 -50.599364 0.000000
4579 1 17.914859 -51.305396 0.000000
4580 1 18.707397 -48.457657 0.000000
4581 1 19.124112 -49.163690 0.000000
4582 1 19.916650 -46.315951 0.000000
4583 1 20.333365 -47.021983 0.000000
4584 1 21.125903 -44.174244 0.000000
4585 1 21.542618 -44.880277 0.000000
4586 1 22.335156 -42.032538 0.000000
4587 1 22.751871 -42.738570 0.000000
4588 1 23.544409 -39.890831 0.000000
4589 1 23.961125 -40.596864 0.000000
4590 1 24.753663 -37.749125 0.000000
4591 1 25.170378 -38.455157 0.000000
4592 1 25.962916 -35.607418 0.000000
4593 1 26.379631 -36.313451 0.000000
4594 1 27.172169 -33.465712 0.000000
4595 1 27.588884 -34.171744 0.000000
4596 1 28.381422 -31.324005 0.000000
4597 1 28.798137 -32.030038 0.000000
4598 1 29.590675 -29.182299 0.000000
4599 1 30.007391 -29.888331 0.000000
4600 1 30.799929 -27.040592 0.000000
4601 1 31.216644 -27.746625 0.000000
4602 1 32.009182 -24.898886 0.000000
4603 1 32.425897 -25.604918 0.000000
4604 1 33.218435 -22.757179 0.000000
4605 1 33.635150 -23.463212 0.000000
4606 1 34.427688 -20.615473 0.000000
4607 1 34.844403 -21.321505 0.000000
4608 1 35.636941 -18.473766 0.000000
4609 1 36.053657 -19.179799 0.000000
4610 1 36.846195 -16.332060 0.000000
4611 1 37.262910 -17.038092 0.000000
4612 1 38.055448 -14.190353 0.000000
4613 1 38.472163 -14.896386 0.000000
4614 1 39.264701 -12.048647 0.000000
4615 1 39.681416 -12.754679 0.000000
4616 1 40.473954 -9.906940 0.000000
4617 1 40.890669 -10.612973 0.000000
4618 1 41.683207 -7.765234 0.000000
4619 1 42.099923 -8.471266 0.000000
4620 1 42.892461 -5.623527 0.000000
4621 1 43.309176 -6.329560 0.000000
4622 1 44.101714 -3.481821 0.000000
4623 1 44.518429 -4.187853 0.000000
4624 1 45.310967 -1.340114 0.000000
4625 1 45.727682 -2.046147 0.000000
4626 1 46.520220 0.801592 0.000000
4627 1 46.936935 0.095560 0.000000
4628 1 47.729473 2.943299 0.000000
4629 1 48.146189 2.237266 0.000000
4630 1 48.938727 5.085005 0.000000
4631 1 49.355442 4.378973 0.000000
4632 1 50.147980 7.226712 0.000000
4633 1 50.564695 6.520679 0.000000
4634 1 51.357233 9.368418 0.000000
4635 1 51.773948 8.662386 0.000000
4636 1 52.566486 11.510125 0.000000
4637 1 52.983201 10.804092 0.000000
4638 1 53.775739 13.651831 0.000000
4639 1 54.192455 12.945799 0.000000
4640 1 54.984993 15.793538 0.000000
4641 1 55.401708 15.087505 0.000000
4642 1 56.194246 17.935244 0.000000
4643 1 56.610961 17.229212 0.000000
4644 1 57.403499 20.076951 0.000000
4645 1 57.820214 19.370918 0.000000
4646 1 58.612752 22.218657 0.000000
4647 1 59.029467 21.512625 0.000000
4648 1 59.822005 24.360364 0.000000
4649 1 60.238721 23.654331 0.000000
4650 1 61.031259 26.502070 0.000000
4651 1 61.447974 25.796038 0.000000
4652 1 62.240512 28.643777 0.000000
4653 1 62.657227 27.937744 0.000000
4654 1 63.449765 30.785483 0.000000
4655 1 63.866480 30.079451 0.000000
4656 1 64.659018 32.927190 0.000000
4657 1 65.075733 32.221157 0.000000
4658 1 65.868271 35.068896 0.000000
4659 1 66.284987 34.362864 0.000000
4660 1 67.077524 37.210603 0.000000
4661 1 67.494240 36.504570 0.000000
4662 1 16.329783 -57.000874 0.000000
4663 1 16.746498 -57.706906 0.000000
4664 1 17.539036 -54.859167 0.000000
4665 1 17.955751 -55.565200 0.000000
4666 1 18.748289 -52.717461 0.000000
4667 1 19.165004 -53.423493 0.000000
4668 1 19.957542 -50.575754 0.000000
4669 1 20.374257 -51.281787 0.000000
4670 1 21.166795 -48.434048 0.000000
4671 1 21.583511 -49.140080 0.000000
4672 1 22.376049 -46.292341 0.000000
4673 1 22.792764 -46.998374 0.000000
4674 1 23.585302 -44.150635 0.000000
4675 1 24.002017 -44.856667 0.000000
4676 1 24.794555 -42.008928 0.000000
4677 1 25.211270 -42.714961 0.000000
4678 1 26.003808 -39.867222 0.000000
4679 1 26.420523 -40.573254 0.000000
4680 1 27.213061 -37.725516 0.000000
4681 1 27.629777 -38.431548 0.000000
4682 1 28.422315 -35.583809 0.000000
4683 1 28.839030 -36.289841 0.000000
4684 1 29.631568 -33.442103 0.000000
4685 1 30.048283 -34.148135 0.000000
4686 1 30.840821 -31.300396 0.000000
4687 1 31.257536 -32.006428 0.000000
4688 1 32.050074 -29.158690 0.000000
4689 1 32.466789 -29.864722 0.000000
4690 1 33.259327 -27.016983 0.000000
4691 1 33.676043 -27.723015 0.000000
4692 1 34.468581 -24.875277 0.000000
4693 1 34.885296 -25.581309 0.000000
4694 1 35.677834 -22.733570 0.000000
4695 1 36.094549 -23.439602 0.000000
4696 1 36.887087 -20.591864 0.000000
4697 1 37.303802 -21.297896 0.000000
4698 1 38.096340 -18.450157 0.000000
4699 1 38.513055 -19.156189 0.000000
4700 1 39.305593 -16.308451 0.000000
4701 1 39.722309 -17.014483 0.000000
4702 1 40.514847 -14.166744 0.000000
4703 1 40.931562 -14.872776 0.000000
4704 1 41.724100 -12.025038 0.000000
4705 1 42.140815 -12.731070 0.000000
4706 1 42.933353 -9.883331 0.000000
4707 1 43.350068 -10.589363 0.000000
4708 1 44.142606 -7.741625 0.000000
4709 1 44.559321 -8.447657 0.000000
4710 1 45.351859 -5.599918 0.000000
4711 1 45.768575 -6.305951 0.000000
4712 1 46.561113 -3.458212 0.000000
4713 1 46.977828 -4.164244 0.000000
4714 1 47.770366 -1.316505 0.000000
4715 1 48.187081 -2.022538 0.000000
4716 1 48.979619 0.825201 0.000000
4717 1 49.396334 0.119169 0.000000
4718 1 50.188872 2.966908 0.000000
4719 1 50.605587 2.260875 0.000000
4720 1 51.398125 5.108614 0.000000
4721 1 51.814841 4.402582 0.000000
4722 1 52.607379 7.250321 0.000000
4723 1 53.024094 6.544288 0.000000
4724 1 53.816632 9.392027 0.000000
4725 1 54.233347 8.685995 0.000000
4726 1 55.025885 11.533734 0.000000
4727 1 55.442600 10.827701 0.000000
4728 1 56.235138 13.675440 0.000000
4729 1 56.651853 12.969408 0.000000
4730 1 57.444391 15.817147 0.000000
4731 1 57.861107 15.111114 0.000000
4732 1 58.653645 17.958853 0.000000
4733 1 59.070360 17.252821 0.000000
4734 1 59.862898 20.100560 0.000000
4735 1 60.279613 19.394527 0.000000
4736 1 61.072151 22.242266 0.000000
4737 1 61.488866 21.536234 0.000000
4738 1 62.281404 24.383973 0.000000
4739 1 62.698119 23.677940 0.000000
4740 1 63.490657 26.525679 0.000000
4741 1 63.907373 25.819647 0.000000
4742 1 64.699911 28.667386 0.000000
4743 1 65.116626 27.961353 0.000000
4744 1 65.909164 30.809092 0.000000
4745 1 66.325879 30.103060 0.000000
4746 1 67.118417 32.950799 0.000000
4747 1 67.535132 32.244766 0.000000
4748 1 68.327670 35.092505 0.000000
4749 1 68.744385 34.386473 0.000000
4750 1 18.789182 -56.977265 0.000000
4751 1 19.205897 -57.683297 0.000000
4752 1 19.998435 -54.835558 0.000000
4753 1 20.415150 -55.541591 0.000000
4754 1 21.207688 -52.693852 0.000000
4755 1 21.624403 -53.399884 0.000000
4756 1 22.416941 -50.552145 0.000000
4757 1 22.833656 -51.258178 0.000000
4758 1 23.626194 -48.410439 0.000000
4759 1 24.042910 -49.116471 0.000000
4760 1 24.835447 -46.268732 0.000000
4761 1 25.252163 -46.974765 0.000000
4762 1 26.044701 -44.127026 0.000000
4763 1 26.461416 -44.833058 0.000000
4764 1 27.253954 -41.985319 0.000000
4765 1 27.670669 -42.691352 0.000000
4766 1 28.463207 -39.843613 0.000000
4767 1 28.879922 -40.549645 0.000000
4768 1 29.672460 -37.701906 0.000000
4769 1 30.089175 -38.407939 0.000000
4770 1 30.881713 -35.560200 0.000000
4771 1 31.298429 -36.266232 0.000000
4772 1 32.090967 -33.418493 0.000000
4773 1 32.507682 -34.124526 0.000000
4774 1 33.300220 -31.276787 0.000000
4775 1 33.716935 -31.982819 0.000000
4776 1 34.509473 -29.135080 0.000000
4777 1 34.926188 -29.841113 0.000000
4778 1 35.718726 -26.993374 0.000000
4779 1 36.135441 -27.699406 0.000000
4780 1 36.927979 -24.851667 0.000000
4781 1 37.344695 -25.557700 0.000000
4782 1 38.137233 -22.709961 0.000000
4783 1 38.553948 -23.415993 0.000000
4784 1 39.346486 -20.568254 0.000000
4785 1 39.763201 -21.274287 0.000000
4786 1 40.555739 -18.426548 0.000000
4787 1 40.972454 -19.132580 0.000000
4788 1 41.764992 -16.284841 0.000000
4789 1 42.181707 -16.990874 0.000000
4790 1 42.974245 -14.143135 0.000000
4791 1 43.390961 -14.849167 0.000000
4792 1 44.183499 -12.001428 0.000000
4793 1 44.600214 -12.707461 0.000000
4794 1 45.392752 -9.859722 0.000000
4795 1 45.809467 -10.565754 0.000000
4796 1 46.602005 -7.718015 0.000000
4797 1 47.018720 -8.424048 0.000000
4798 1 47.811258 -5.576309 0.000000
4799 1 48.227973 -6.282341 0.000000
4800 1 49.020511 -3.434602 0.000000
4801 1 49.437227 -4.140635 0.000000
4802 1 50.229765 -1.292896 0.000000
4803 1 50.646480 -1.998928 0.000000
4804 1 51.439018 0.848811 0.000000
4805 1 51.855733 0.142778 0.000000
4806 1 52.648271 2.990517 0.000000
4807 1 53.064986 2.284485 0.000000
4808 1 53.857524 5.132224 0.000000
4809 1 54.274239 4.426191 0.000000
4810 1 55.066777 7.273930 0.000000
4811 1 55.483493 6.567898 0.000000
4812 1 56.276031 9.415637 0.000000
4813 1 56.692746 8.709604 0.000000
4814 1 57.485284 11.557343 0.000000
4815 1 57.901999 10.851311 0.000000
4816 1 58.694537 13.699050 0.000000
4817 1 59.111252 12.993017 0.000000
4818 1 59.903790 15.840756 0.000000
4819 1 60.320505 15.134724 0.000000
4820 1 61.113043 17.982463 0.000000
4821 1 61.529759 17.276430 0.000000
4822 1 62.322297 20.124169 0.000000
4823 1 62.739012 19.418137 0.000000
4824 1 63.531550 22.265876 0.000000
4825 1 63.948265 21.559843 0.000000
4826 1 64.740803 24.407582 0.000000
4827 1 65.157518 23.701550 0.000000
4828 1 65.950056 26.549289 0.000000
4829 1 66.366771 25.843256 0.000000
4830 1 67.159309 28.690995 0.000000
4831 1 67.576025 27.984963 0.000000
4832 1 68.368563 30.832702 0.000000
4833 1 68.785278 30.126669 0.000000
4834 1 21.248580 -56.953655 0.000000
4835 1 21.665296 -57.659688 0.000000
4836 1 22.457834 -54.811949 0.000000
4837 1 22.874549 -55.517981 0.000000
4838 1 23.667087 -52.670242 0.000000
4839 1 24.083802 -53.376275 0.000000
4840 1 24.876340 -50.528536 0.000000
4841 1 25.293055 -51.234568 0.000000
4842 1 26.085593 -48.386829 0.000000
4843 1 26.502308 -49.092862 0.000000
4844 1 27.294846 -46.245123 0.000000
4845 1 27.711562 -46.951155 0.000000
4846 1 28.504100 -44.103416 0.000000
4847 1 28.920815 -44.809449 0.000000
4848 1 29.713353 -41.961710 0.000000
4849 1 30.130068 -42.667742 0.000000
4850 1 30.922606 -39.820003 0.000000
4851 1 31.339321 -40.526036 0.000000
4852 1 32.131859 -37.678297 0.000000
4853 1 32.548574 -38.384329 0.000000
4854 1 33.341112 -35.536590 0.000000
4855 1 33.757828 -36.242623 0.000000
4856 1 34.550365 -33.394884 0.000000
4857 1 34.967081 -34.100916 0.000000
4858 1 35.759619 -31.253178 0.000000
4859 1 36.176334 -31.959210 0.000000
4860 1 36.968872 -29.111471 0.000000
4861 1 37.385587 -29.817503 0.000000
4862 1 38.178125 -26.969765 0.000000
4863 1 38.594840 -27.675797 0.000000
4864 1 39.387378 -24.828058 0.000000
4865 1 39.804093 -25.534090 0.000000
4866 1 40.596631 -22.686352 0.000000
4867 1 41.013347 -23.392384 0.000000
4868 1 41.805885 -20.544645 0.000000
4869 1 42.222600 -21.250677 0.000000
4870 1 43.015138 -18.402939 0.000000
4871 1 43.431853 -19.108971 0.000000
4872 1 44.224391 -16.261232 0.000000
4873 1 44.641106 -16.967264 0.000000
4874 1 45.433644 -14.119526 0.000000
4875 1 45.850359 -14.825558 0.000000
4876 1 46.642897 -11.977819 0.000000
4877 1 47.059613 -12.683851 0.000000
4878 1 47.852151 -9.836113 0.000000
4879 1 48.268866 -10.542145 0.000000
4880 1 49.061404 -7.694406 0.000000
4881 1 49.478119 -8.400438 0.000000
4882 1 50.270657 -5.552700 0.000000
4883 1 50.687372 -6.258732 0.000000
4884 1 51.479910 -3.410993 0.000000
4885 1 51.896625 -4.117025 0.000000
4886 1 52.689163 -1.269287 0.000000
4887 1 53.105879 -1.975319 0.000000
4888 1 53.898417 0.872420 0.000000
4889 1 54.315132 0.166387 0.000000
4890 1 55.107670 3.014126 0.000000
4891 1 55.524385 2.308094 0.000000
4892 1 56.316923 5.155833 0.000000
4893 1 56.733638 4.449800 0.000000
4894 1 57.526176 7.297539 0.000000
4895 1 57.942891 6.591507 0.000000
4896 1 58.735429 9.439246 0.000000
4897 1 59.152145 8.733213 0.000000
4898 1 59.944683 11.580952 0.000000
4899 1 60.361398 10.874920 0.000000
4900 1 61.153936 13.722659 0.000000
4901 1 61.570651 13.016626 0.000000
4902 1 62.363189 15.864365 0.000000
4903 1 62.779904 15.158333 0.000000
4904 1 63.572442 18.006072 0.000000
4905 1 63.989157 17.300039 0.000000
4906 1 64.781695 20.147778 0.000000
4907 1 65.198411 19.441746 0.000000
4908 1 65.990949 22.289485 0.000000
4909 1 66.407664 21.583452 0.000000
4910 1 67.200202 24.431191 0.000000
4911 1 67.616917 23.725159 0.000000
4912 1 68.409455 26.572898 0.000000
4913 1 68.826170 25.866865 0.000000
4914 1 69.618708 28.714604 0.000000
4915 1 70.035423 28.008572 0.000000
4916 1 23.707979 -56.930046 0.000000
4917 1 24.124694 -57.636079 0.000000
4918 1 24.917232 -54.788340 0.000000
4919 1 25.333948 -55.494372 0.000000
4920 1 26.126486 -52.646633 0.000000
4921 1 26.543201 -53.352666 0.000000
4922 1 27.335739 -50.504927 0.000000
4923 1 27.752454 -51.210959 0.000000
4924 1 28.544992 -48.363220 0.000000
4925 1 28.961707 -49.069253 0.000000
4926 1 29.754245 -46.221514 0.000000
4927 1 30.170960 -46.927546 0.000000
4928 1 30.963498 -44.079807 0.000000
4929 1 31.380214 -44.785840 0.000000
4930 1 32.172752 -41.938101 0.000000
4931 1 32.589467 -42.644133 0.000000
4932 1 33.382005 -39.796394 0.000000
4933 1 33.798720 -40.502427 0.000000
4934 1 34.591258 -37.654688 0.000000
4935 1 35.007973 -38.360720 0.000000
4936 1 35.800511 -35.512981 0.000000
4937 1 36.217226 -36.219014 0.000000
4938 1 37.009764 -33.371275 0.000000
4939 1 37.426480 -34.077307 0.000000
4940 1 38.219018 -31.229568 0.000000
4941 1 38.635733 -31.935601 0.000000
4942 1 39.428271 -29.087862 0.000000
4943 1 39.844986 -29.793894 0.000000
4944 1 40.637524 -26.946155 0.000000
4945 1 41.054239 -27.652188 0.000000
4946 1 41.846777 -24.804449 0.000000
4947 1 42.263492 -25.510481 0.000000
4948 1 43.056030 -22.662742 0.000000
4949 1 43.472746 -23.368775 0.000000
4950 1 44.265284 -20.521036 0.000000
4951 1 44.681999 -21.227068 0.000000
4952 1 45.474537 -18.379329 0.000000
4953 1 45.891252 -19.085362 0.000000
4954 1 46.683790 -16.237623 0.000000
4955 1 47.100505 -16.943655 0.000000
4956 1 47.893043 -14.095916 0.000000
4957 1 48.309758 -14.801949 0.000000
4958 1 49.102296 -11.954210 0.000000
4959 1 49.519012 -12.660242 0.000000
4960 1 50.311549 -9.812503 0.000000
4961 1 50.728265 -10.518536 0.000000
4962 1 51.520803 -7.670797 0.000000
4963 1 51.937518 -8.376829 0.000000
4964 1 52.730056 -5.529090 0.000000
4965 1 53.146771 -6.235123 0.000000
4966 1 53.939309 -3.387384 0.000000
4967 1 54.356024 -4.093416 0.000000
4968 1 55.148562 -1.245677 0.000000
4969 1 55.565277 -1.951710 0.000000
4970 1 56.357815 0.896029 0.000000
4971 1 56.774531 0.189997 0.000000
4972 1 57.567069 3.037736 0.000000
4973 1 57.983784 2.331703 0.000000
4974 1 58.776322 5.179442 0.000000
4975 1 59.193037 4.473410 0.000000
4976 1 59.985575 7.321149 0.000000
4977 1 60.402290 6.615116 0.000000
4978 1 61.194828 9.462855 0.000000
4979 1 61.611543 8.756823 0.000000
4980 1 62.404081 11.604562 0.000000
4981 1 62.820797 10.898529 0.000000
4982 1 63.613335 13.746268 0.000000
4983 1 64.030050 13.040236 0.000000
4984 1 64.822588 15.887975 0.000000
4985 1 65.239303 15.181942 0.000000
4986 1 66.031841 18.029681 0.000000
4987 1 66.448556 17.323649 0.000000
4988 1 67.241094 20.171388 0.000000
4989 1 67.657809 19.465355 0.000000
4990 1 68.450347 22.313094 0.000000
4991 1 68.867063 21.607062 0.000000
4992 1 69.659601 24.454801 0.000000
4993 1 70.076316 23.748768 0.000000
4994 1 70.868854 26.596507 0.000000
4995 1 71.285569 25.890475 0.000000
4996 1 26.167378 -56.906437 0.000000
4997 1 26.584093 -57.612469 0.000000
4998 1 27.376631 -54.764730 0.000000
4999 1 27.793346 -55.470763 0.000000
5000 1 28.585884 -52.623024 0.000000
5001 1 29.002600 -53.329056 0.000000
5002 1 29.795138 -50.481317 0.000000
5003 1 30.211853 -51.187350 0.000000
5004 1 31.004391 -48.339611 0.000000
5005 1 31.421106 -49.045643 0.000000
5006 1 32.213644 -46.197904 0.000000
5007 1 32.630359 -46.903937 0.000000
5008 1 33.422897 -44.056198 0.000000
5009 1 33.839612 -44.762230 0.000000
5010 1 34.632150 -41.914491 0.000000
5011 1 35.048866 -42.620524 0.000000
5012 1 35.841404 -39.772785 0.000000
5013 1 36.258119 -40.478817 0.000000
5014 1 37.050657 -37.631078 0.000000
5015 1 37.467372 -38.337111 0.000000
5016 1 38.259910 -35.489372 0.000000
5017 1 38.676625 -36.195404 0.000000
5018 1 39.469163 -33.347665 0.000000
5019 1 39.885878 -34.053698 0.000000
5020 1 40.678416 -31.205959 0.000000
5021 1 41.095132 -31.911991 0.000000
5022 1 41.887670 -29.064252 0.000000
5023 1 42.304385 -29.770285 0.000000
5024 1 43.096923 -26.922546 0.000000
5025 1 43.513638 -27.628578 0.000000
5026 1 44.306176 -24.780840 0.000000
5027 1 44.722891 -25.486872 0.000000
5028 1 45.515429 -22.639133 0.000000
5029 1 45.932144 -23.345165 0.000000
5030 1 46.724682 -20.497427 0.000000
5031 1 47.141398 -21.203459 0.000000
5032 1 47.933936 -18.355720 0.000000
5033 1 48.350651 -19.061752 0.000000
5034 1 49.143189 -16.214014 0.000000
5035 1 49.559904 -16.920046 0.000000
5036 1 50.352442 -14.072307 0.000000
5037 1 50.769157 -14.778339 0.000000
5038 1 51.561695 -11.930601 0.000000
5039 1 51.978410 -12.636633 0.000000
5040 1 52.770948 -9.788894 0.000000
5041 1 53.187664 -10.494926 0.000000
5042 1 53.980202 -7.647188 0.000000
5043 1 54.396917 -8.353220 0.000000
5044 1 55.189455 -5.505481 0.000000
5045 1 55.606170 -6.211513 0.000000
5046 1 56.398708 -3.363775 0.000000
5047 1 56.815423 -4.069807 0.000000
5048 1 57.607961 -1.222068 0.000000
5049 1 58.024676 -1.928100 0.000000
5050 1 58.817214 0.919638 0.000000
5051 1 59.233930 0.213606 0.000000
5052 1 60.026468 3.061345 0.000000
5053 1 60.443183 2.355313 0.000000
5054 1 61.235721 5.203051 0.000000
5055 1 61.652436 4.497019 0.000000
5056 1 62.444974 7.344758 0.000000
5057 1 62.861689 6.638725 0.000000
5058 1 63.654227 9.486464 0.000000
5059 1 64.070942 8.780432 0.000000
5060 1 64.863480 11.628171 0.000000
5061 1 65.280195 10.922138 0.000000
5062 1 66.072733 13.769877 0.000000
5063 1 66.489449 13.063845 0.000000
5064 1 67.281987 15.911584 0.000000
5065 1 67.698702 15.205551 0.000000
5066 1 68.491240 18.053290 0.000000
5067 1 68.907955 17.347258 0.000000
5068 1 69.700493 20.194997 0.000000
5069 1 70.117208 19.488964 0.000000
5070 1 70.909746 22.336703 0.000000
5071 1 71.326461 21.630671 0.000000
5072 1 72.118999 24.478410 0.000000
5073 1 72.535715 23.772377 0.000000
5074 1 28.626777 -56.882828 0.000000
5075 1 29.043492 -57.588860 0.000000
5076 1 29.836030 -54.741121 0.000000
5077 1 30.252745 -55.447154 0.000000
5078 1 31.045283 -52.599415 0.000000
5079 1 31.461998 -53.305447 0.000000
5080 1 32.254536 -50.457708 0.000000
5081 1 32.671252 -51.163741 0.000000
5082 1 33.463790 -48.316002 0.000000
5083 1 33.880505 -49.022034 0.000000
5084 1 34.673043 -46.174295 0.000000
5085 1 35.089758 -46.880328 0.000000
5086 1 35.882296 -44.032589 0.000000
5087 1 36.299011 -44.738621 0.000000
5088 1 37.091549 -41.890882 0.000000
5089 1 37.508264 -42.596915 0.000000
5090 1 38.300802 -39.749176 0.000000
5091 1 38.717518 -40.455208 0.000000
5092 1 39.510056 -37.607469 0.000000
5093 1 39.926771 -38.313502 0.000000
5094 1 40.719309 -35.465763 0.000000
5095 1 41.136024 -36.171795 0.000000
5096 1 41.928562 -33.324056 0.000000
5097 1 42.345277 -34.030089 0.000000
5098 1 43.137815 -31.182350 0.000000
5099 1 43.554530 -31.888382 0.000000
5100 1 44.347068 -29.040643 0.000000
5101 1 44.763784 -29.746676 0.000000
5102 1 45.556322 -26.898937 0.000000
5103 1 45.973037 -27.604969 0.000000
5104 1 46.765575 -24.757230 0.000000
5105 1 47.182290 -25.463263 0.000000
5106 1 47.974828 -22.615524 0.000000
5107 1 48.391543 -23.321556 0.000000
5108 1 49.184081 -20.473817 0.000000
5109 1 49.600796 -21.179850 0.000000
5110 1 50.393334 -18.332111 0.000000
5111 1 50.810050 -19.038143 0.000000
5112 1 51.602588 -16.190404 0.000000
5113 1 52.019303 -16.896437 0.000000
5114 1 52.811841 -14.048698 0.000000
5115 1 53.228556 -14.754730 0.000000
5116 1 54.021094 -11.906991 0.000000
5117 1 54.437809 -12.613024 0.000000
5118 1 55.230347 -9.765285 0.000000
5119 1 55.647062 -10.471317 0.000000
5120 1 56.439600 -7.623578 0.000000
5121 1 56.856316 -8.329611 0.000000
5122 1 57.648854 -5.481872 0.000000
5123 1 58.065569 -6.187904 0.000000
5124 1 58.858107 -3.340165 0.000000
5125 1 59.274822 -4.046198 0.000000
5126 1 60.067360 -1.198459 0.000000
5127 1 60.484075 -1.904491 0.000000
5128 1 61.276613 0.943248 0.000000
5129 1 61.693328 0.237215 0.000000
5130 1 62.485866 3.084954 0.000000
5131 1 62.902582 2.378922 0.000000
5132 1 63.695120 5.226661 0.000000
5133 1 64.111835 4.520628 0.000000
5134 1 64.904373 7.368367 0.000000
5135 1 65.321088 6.662335 0.000000
5136 1 66.113626 9.510074 0.000000
5137 1 66.530341 8.804041 0.000000
5138 1 67.322879 11.651780 0.000000
5139 1 67.739594 10.945748 0.000000
5140 1 68.532132 13.793487 0.000000
5141 1 68.948848 13.087454 0.000000
5142 1 69.741386 15.935193 0.000000
5143 1 70.158101 15.229161 0.000000
5144 1 70.950639 18.076900 0.000000
5145 1 71.367354 17.370867 0.000000
5146 1 72.159892 20.218606 0.000000
5147 1 72.576607 19.512574 0.000000
5148 1 73.369145 22.360313 0.000000
5149 1 31.086176 -56.859218 0.000000
5150 1 31.502891 -57.565251 0.000000
5151 1 32.295429 -54.717512 0.000000
5152 1 32.712144 -55.423544 0.000000
5153 1 33.504682 -52.575805 0.000000
5154 1 33.921397 -53.281838 0.000000
5155 1 34.713935 -50.434099 0.000000
5156 1 35.130650 -51.140131 0.000000
5157 1 35.923188 -48.292392 0.000000
5158 1 36.339904 -48.998425 0.000000
5159 1 37.132442 -46.150686 0.000000
5160 1 37.549157 -46.856718 0.000000
5161 1 38.341695 -44.008979 0.000000
5162 1 38.758410 -44.715012 0.000000
5163 1 39.550948 -41.867273 0.000000
5164 1 39.967663 -42.573305 0.000000
5165 1 40.760201 -39.725566 0.000000
5166 1 41.176916 -40.431599 0.000000
5167 1 41.969454 -37.583860 0.000000
5168 1 42.386170 -38.289892 0.000000
5169 1 43.178708 -35.442153 0.000000
5170 1 43.595423 -36.148186 0.000000
5171 1 44.387961 -33.300447 0.000000
5172 1 44.804676 -34.006479 0.000000
5173 1 45.597214 -31.158740 0.000000
5174 1 46.013929 -31.864773 0.000000
5175 1 46.806467 -29.017034 0.000000
5176 1 47.223182 -29.723066 0.000000
5177 1 48.015720 -26.875327 0.000000
5178 1 48.432436 -27.581360 0.000000
5179 1 49.224974 -24.733621 0.000000
5180 1 49.641689 -25.439653 0.000000
5181 1 50.434227 -22.591914 0.000000
5182 1 50.850942 -23.297947 0.000000
5183 1 51.643480 -20.450208 0.000000
5184 1 52.060195 -21.156240 0.000000
5185 1 52.852733 -18.308502 0.000000
5186 1 53.269448 -19.014534 0.000000
5187 1 54.061986 -16.166795 0.000000
5188 1 54.478702 -16.872827 0.000000
5189 1 55.271240 -14.025089 0.000000
5190 1 55.687955 -14.731121 0.000000
5191 1 56.480493 -11.883382 0.000000
5192 1 56.897208 -12.589414 0.000000
5193 1 57.689746 -9.741676 0.000000
5194 1 58.106461 -10.447708 0.000000
5195 1 58.898999 -7.599969 0.000000
5196 1 59.315714 -8.306001 0.000000
5197 1 60.108252 -5.458263 0.000000
5198 1 60.524968 -6.164295 0.000000
5199 1 61.317506 -3.316556 0.000000
5200 1 61.734221 -4.022588 0.000000
5201 1 62.526759 -1.174850 0.000000
5202 1 62.943474 -1.880882 0.000000
5203 1 63.736012 0.966857 0.000000
5204 1 64.152727 0.260825 0.000000
5205 1 64.945265 3.108563 0.000000
5206 1 65.361980 2.402531 0.000000
5207 1 66.154518 5.250270 0.000000
5208 1 66.571234 4.544238 0.000000
5209 1 67.363772 7.391976 0.000000
5210 1 67.780487 6.685944 0.000000
5211 1 68.573025 9.533683 0.000000
5212 1 68.989740 8.827651 0.000000
5213 1 69.782278 11.675389 0.000000
5214 1 70.198993 10.969357 0.000000
5215 1 70.991531 13.817096 0.000000
5216 1 71.408246 13.111063 0.000000
5217 1 72.200784 15.958802 0.000000
5218 1 72.617500 15.252770 0.000000
5219 1 73.410038 18.100509 0.000000
5220 1 73.826753 17.394476 0.000000
5221 1 33.545574 -56.835609 0.000000
5222 1 33.962290 -57.541642 0.000000
5223 1 34.754828 -54.693903 0.000000
5224 1 35.171543 -55.399935 0.000000
5225 1 35.964081 -52.552196 0.000000
5226 1 36.380796 -53.258229 0.000000
5227 1 37.173334 -50.410490 0.000000
5228 1 37.590049 -51.116522 0.000000
5229 1 38.382587 -48.268783 0.000000
5230 1 38.799302 -48.974816 0.000000
5231 1 39.591840 -46.127077 0.000000
5232 1 40.008556 -46.833109 0.000000
5233 1 40.801094 -43.985370 0.000000
5234 1 41.217809 -44.691403 0.000000
5235 1 42.010347 -41.843664 0.000000
5236 1 42.427062 -42.549696 0.000000
5237 1 43.219600 -39.701957 0.000000
5238 1 43.636315 -40.407990 0.000000
5239 1 44.428853 -37.560251 0.000000
5240 1 44.845568 -38.266283 0.000000
5241 1 45.638106 -35.418544 0.000000
5242 1 46.054822 -36.124577 0.000000
5243 1 46.847360 -33.276838 0.000000
5244 1 47.264075 -33.982870 0.000000
5245 1 48.056613 -31.135131 0.000000
5246 1 48.473328 -31.841164 0.000000
5247 1 49.265866 -28.993425 0.000000
5248 1 49.682581 -29.699457 0.000000
5249 1 50.475119 -26.851718 0.000000
5250 1 50.891834 -27.557751 0.000000
5251 1 51.684372 -24.710012 0.000000
5252 1 52.101088 -25.416044 0.000000
5253 1 52.893626 -22.568305 0.000000
5254 1 53.310341 -23.274338 0.000000
5255 1 54.102879 -20.426599 0.000000
5256 1 54.519594 -21.132631 0.000000
5257 1 55.312132 -18.284892 0.000000
5258 1 55.728847 -18.990925 0.000000
5259 1 56.521385 -16.143186 0.000000
5260 1 56.938100 -16.849218 0.000000
5261 1 57.730638 -14.001479 0.000000
5262 1 58.147354 -14.707512 0.000000
5263 1 58.939892 -11.859773 0.000000
5264 1 59.356607 -12.565805 0.000000
5265 1 60.149145 -9.718066 0.000000
5266 1 60.565860 -10.424099 0.000000
5267 1 61.358398 -7.576360 0.000000
5268 1 61.775113 -8.282392 0.000000
5269 1 62.567651 -5.434653 0.000000
5270 1 62.984366 -6.140686 0.000000
5271 1 63.776904 -3.292947 0.000000
5272 1 64.193620 -3.998979 0.000000
5273 1 64.986158 -1.151240 0.000000
5274 1 65.402873 -1.857273 0.000000
5275 1 66.195411 0.990466 0.000000
5276 1 66.612126 0.284434 0.000000
5277 1 67.404664 3.132173 0.000000
5278 1 67.821379 2.426140 0.000000
5279 1 68.613917 5.273879 0.000000
5280 1 69.030632 4.567847 0.000000
5281 1 69.823170 7.415586 0.000000
5282 1 70.239886 6.709553 0.000000
5283 1 71.032424 9.557292 0.000000
5284 1 71.449139 8.851260 0.000000
5285 1 72.241677 11.698999 0.000000
5286 1 72.658392 10.992966 0.000000
5287 1 73.450930 13.840705 0.000000
5288 1 73.867645 13.134673 0.000000
5289 1 74.660183 15.982412 0.000000
5290 1 75.076898 15.276379 0.000000
5291 2 -75.356330 -13.832280 3.350000
5292 2 -74.953246 -14.546182 3.350000
5293 2 -74.106184 -11.714182 3.350000
5294 2 -73.703100 -12.428084 3.350000
5295 2 -72.856039 -9.596085 3.350000
5296 2 -72.452954 -10.309987 3.350000
5297 2 -71.605893 -7.477988 3.350000
5298 2 -71.202809 -8.191890 3.350000
5299 2 -70.355747 -5.359891 3.350000
5300 2 -69.952663 -6.073793 3.350000
5301 2 -69.105602 -3.241793 3.350000
5302 2 -68.702517 -3.955696 3.350000
5303 2 -67.855456 -1.123696 3.350000
5304 2 -67.452372 -1.837598 3.350000
5305 2 -66.605311 0.994401 3.350000
5306 2 -66.202226 0.280499 3.350000
5307 2 -65.355165 3.112498 3.350000
5308 2 -64.952081 2.398596 3.350000
5309 2 -64.105019 5.230596 3.350000
5310 2 -63.701935 4.516693 3.350000
5311 2 -62.854874 7.348693 3.350000
5312 2 -62.451789 6.634791 3.350000
5313 2 -61.604728 9.466790 3.350000
5314 2 -61.201644 8.752888 3.350000
5315 2 -60.354582 11.584887 3.350000
5316 2 -59.951498 10.870985 3.350000
5317 2 -59.104437 13.702984 3.350000
5318 2 -58.701352 12.989082 3.350000
5319 2 -57.854291 15.821082 3.350000
5320 2 -57.451207 15.107180 3.350000
5321 2 -56.604146 17.939179 3.350000
5322 2 -56.201061 17.225277 3.350000
5323 2 -55.354000 20.057276 3.350000
5324 2 -54.950916 19.343374 3.350000
5325 2 -54.103854 22.175373 3.350000
5326 2 -53.700770 21.461471 3.350000
5327 2 -52.853709 24.293471 3.350000
5328 2 -52.450624 23.579568 3.350000
5329 2 -51.603563 26.411568 3.350000
5330 2 -51.200479 25.697666 3.350000
5331 2 -50.353417 28.529665 3.350000
5332 2 -49.950333 27.815763 3.350000
5333 2 -49.103272 30.647762 3.350000
5334 2 -48.700187 29.933860 3.350000
5335 2 -47.853126 32.765860 3.350000
5336 2 -47.450042 32.051957 3.350000
5337 2 -46.602980 34.883957 3.350000
5338 2 -46.199896 34.170055 3.350000
5339 2 -45.352835 37.002054 3.350000
5340 2 -44.949750 36.288152 3.350000
5341 2 -44.102689 39.120151 3.350000
5342 2 -43.699605 38.406249 3.350000
5343 2 -42.852544 41.238249 3.350000
5344 2 -42.449459 40.524346 3.350000
5345 2 -41.602398 43.356346 3.350000
5346 2 -41.199314 42.642444 3.350000
5347 2 -40.352252 45.474443 3.350000
5348 2 -39.949168 44.760541 3.350000
5349 2 -39.102107 47.592540 3.350000
5350 2 -38.699022 46.878638 3.350000
5351 2 -37.851961 49.710637 3.350000
5352 2 -37.448877 48.996735 3.350000
5353 2 -36.601815 51.828735 3.350000
5354 2 -36.198731 51.114833 3.350000
5355 2 -35.351670 53.946832 3.350000
5356 2 -34.948585 53.232930 3.350000
5357 2 -34.101524 56.064929 3.350000
5358 2 -33.698440 55.351027 3.350000
5359 2 -32.851379 58.183026 3.350000
5360 2 -32.448294 57.469124 3.350000
5361 2 -74.147077 -15.973986 3.350000
5362 2 -73.743992 -16.687888 3.350000
5363 2 -72.896931 -13.855889 3.350000
5364 2 -72.493847 -14.569791 3.350000
5365 2 -71.646786 -11.737792 3.350000
5366 2 -71.243701 -12.451694 3.350000
5367 2 -70.396640 -9.619694 3.350000
5368 2 -69.993556 -10.333597 3.350000
5369 2 -69.146494 -7.501597 3.350000
5370 2 -68.743410 -8.215499 3.350000
5371 2 -67.896349 -5.383500 3.350000
5372 2 -67.493264 -6.097402 3.350000
5373 2 -66.646203 -3.265403 3.350000
5374 2 -66.243119 -3.979305 3.350000
5375 2 -65.396057 -1.147305 3.350000
5376 2 -64.992973 -1.861208 3.350000
5377 2 -64.145912 0.970792 3.350000
5378 2 -63.742827 0.256890 3.350000
5379 2 -62.895766 3.088889 3.350000
5380 2 -62.492682 2.374987 3.350000
5381 2 -61.645621 5.206986 3.350000
5382 2 -61.242536 4.493084 3.350000
5383 2 -60.395475 7.325084 3.350000
5384 2 -59.992390 6.611181 3.350000
5385 2 -59.145329 9.443181 3.350000
5386 2 -58.742245 8.729279 3.350000
5387 2 -57.895184 11.561278 3.350000
5388 2 -57.492099 10.847376 3.350000
5389 2 -56.645038 13.679375 3.350000
5390 2 -56.241954 12.965473 3.350000
5391 2 -55.394892 15.797472 3.350000
5392 2 -54.991808 15.083570 3.350000
5393 2 -54.144747 17.915570 3.350000
5394 2 -53.741662 17.201668 3.350000
5395 2 -52.894601 20.033667 3.350000
5396 2 -52.491517 19.319765 3.350000
5397 2 -51.644455 22.151764 3.350000
5398 2 -51.241371 21.437862 3.350000
5399 2 -50.394310 24.269861 3.350000
5400 2 -49.991225 23.555959 3.350000
5401 2 -49.144164 26.387959 3.350000
5402 2 -48.741080 25.674056 3.350000
5403 2 -47.894019 28.506056 3.350000
5404 2 -47.490934 27.792154 3.350000
5405 2 -46.643873 30.624153 3.350000
5406 2 -46.240789 29.910251 3.350000
5407 2 -45.393727 32.742250 3.350000
5408 2 -44.990643 32.028348 3.350000
5409 2 -44.143582 34.860348 3.350000
5410 2 -43.740497 34.146445 3.350000
5411 2 -42.893436 36.978445 3.350000
5412 2 -42.490352 36.264543 3.350000
5413 2 -41.643290 39.096542 3.350000
5414 2 -41.240206 38.382640 3.350000
5415 2 -40.393145 41.214639 3.350000
5416 2 -39.990060 40.500737 3.350000
5417 2 -39.142999 43.332737 3.350000
5418 2 -38.739915 42.618834 3.350000
5419 2 -37.892853 45.450834 3.350000
5420 2 -37.489769 44.736932 3.350000
5421 2 -36.642708 47.568931 3.350000
5422 2 -36.239623 46.855029 3.350000
5423 2 -35.392562 49.687028 3.350000
5424 2 -34.989478 48.973126 3.350000
5425 2 -34.142417 51.805125 3.350000
5426 2 -33.739332 51.091223 3.350000
5427 2 -32.892271 53.923223 3.350000
5428 2 -32.489187 53.209321 3.350000
5429 2 -31.642125 56.041320 3.350000
5430 2 -31.239041 55.327418 3.350000
5431 2 -30.391980 58.159417 3.350000
5432 2 -29.988895 57.445515 3.350000
5433 2 -73.784885 -20.947692 3.350000
5434 2 -72.937824 -18.115693 3.350000
5435 2 -72.534739 -18.829595 3.350000
5436 2 -71.687678 -15.997595 3.350000
5437 2 -71.284594 -16.711497 3.350000
5438 2 -70.437532 -13.879498 3.350000
5439 2 -70.034448 -14.593400 3.350000
5440 2 -69.187387 -11.761401 3.350000
5441 2 -68.784302 -12.475303 3.350000
5442 2 -67.937241 -9.643304 3.350000
5443 2 -67.534157 -10.357206 3.350000
5444 2 -66.687095 -7.525206 3.350000
5445 2 -66.284011 -8.239109 3.350000
5446 2 -65.436950 -5.407109 3.350000
5447 2 -65.033865 -6.121011 3.350000
5448 2 -64.186804 -3.289012 3.350000
5449 2 -63.783720 -4.002914 3.350000
5450 2 -62.936659 -1.170915 3.350000
5451 2 -62.533574 -1.884817 3.350000
5452 2 -61.686513 0.947183 3.350000
5453 2 -61.283429 0.233280 3.350000
5454 2 -60.436367 3.065280 3.350000
5455 2 -60.033283 2.351378 3.350000
5456 2 -59.186222 5.183377 3.350000
5457 2 -58.783137 4.469475 3.350000
5458 2 -57.936076 7.301474 3.350000
5459 2 -57.532992 6.587572 3.350000
5460 2 -56.685930 9.419572 3.350000
5461 2 -56.282846 8.705669 3.350000
5462 2 -55.435785 11.537669 3.350000
5463 2 -55.032700 10.823767 3.350000
5464 2 -54.185639 13.655766 3.350000
5465 2 -53.782555 12.941864 3.350000
5466 2 -52.935494 15.773863 3.350000
5467 2 -52.532409 15.059961 3.350000
5468 2 -51.685348 17.891960 3.350000
5469 2 -51.282263 17.178058 3.350000
5470 2 -50.435202 20.010058 3.350000
5471 2 -50.032118 19.296156 3.350000
5472 2 -49.185057 22.128155 3.350000
5473 2 -48.781972 21.414253 3.350000
5474 2 -47.934911 24.246252 3.350000
5475 2 -47.531827 23.532350 3.350000
5476 2 -46.684765 26.364349 3.350000
5477 2 -46.281681 25.650447 3.350000
5478 2 -45.434620 28.482447 3.350000
5479 2 -45.031535 27.768544 3.350000
5480 2 -44.184474 30.600544 3.350000
5481 2 -43.781390 29.886642 3.350000
5482 2 -42.934328 32.718641 3.350000
5483 2 -42.531244 32.004739 3.350000
5484 2 -41.684183 34.836738 3.350000
5485 2 -41.281098 34.122836 3.350000
5486 2 -40.434037 36.954836 3.350000
5487 2 -40.030953 36.240933 3.350000
5488 2 -39.183892 39.072933 3.350000
5489 2 -38.780807 38.359031 3.350000
5490 2 -37.933746 41.191030 3.350000
5491 2 -37.530662 40.477128 3.350000
5492 2 -36.683600 43.309127 3.350000
5493 2 -36.280516 42.595225 3.350000
5494 2 -35.433455 45.427224 3.350000
5495 2 -35.030370 44.713322 3.350000
5496 2 -34.183309 47.545322 3.350000
5497 2 -33.780225 46.831420 3.350000
5498 2 -32.933163 49.663419 3.350000
5499 2 -32.530079 48.949517 3.350000
5500 2 -31.683018 51.781516 3.350000
5501 2 -31.279933 51.067614 3.350000
5502 2 -30.432872 53.899613 3.350000
5503 2 -30.029788 53.185711 3.350000
5504 2 -29.182726 56.017711 3.350000
5505 2 -28.779642 55.303809 3.350000
5506 2 -27.932581 58.135808 3.350000
5507 2 -27.529496 57.421906 3.350000
5508 2 -72.978716 -22.375496 3.350000
5509 2 -72.575632 -23.089398 3.350000
5510 2 -71.728570 -20.257399 3.350000
5511 2 -71.325486 -20.971301 3.350000
5512 2 -70.478425 -18.139302 3.350000
5513 2 -70.075340 -18.853204 3.350000
5514 2 -69.228279 -16.021205 3.350000
5515 2 -68.825195 -16.735107 3.350000
5516 2 -67.978134 -13.903107 3.350000
5517 2 -67.575049 -14.617010 3.350000
5518 2 -66.727988 -11.785010 3.350000
5519 2 -66.324904 -12.498912 3.350000
5520 2 -65.477842 -9.666913 3.350000
5521 2 -65.074758 -10.380815 3.350000
5522 2 -64.227697 -7.548816 3.350000
5523 2 -63.824612 -8.262718 3.350000
5524 2 -62.977551 -5.430718 3.350000
5525 2 -62.574467 -6.144621 3.350000
5526 2 -61.727405 -3.312621 3.350000
5527 2 -61.324321 -4.026523 3.350000
5528 2 -60.477260 -1.194524 3.350000
5529 2 -60.074175 -1.908426 3.350000
5530 2 -59.227114 0.923573 3.350000
5531 2 -58.824030 0.209671 3.350000
5532 2 -57.976968 3.041671 3.350000
5533 2 -57.573884 2.327768 3.350000
5534 2 -56.726823 5.159768 3.350000
5535 2 -56.323738 4.445866 3.350000
5536 2 -55.476677 7.277865 3.350000
5537 2 -55.073593 6.563963 3.350000
5538 2 -54.226532 9.395962 3.350000
5539 2 -53.823447 8.682060 3.350000
5540 2 -52.976386 11.514059 3.350000
5541 2 -52.573302 10.800157 3.350000
5542 2 -51.726240 13.632157 3.350000
5543 2 -51.323156 12.918255 3.350000
5544 2 -50.476095 15.750254 3.350000
5545 2 -50.073010 15.036352 3.350000
5546 2 -49.225949 17.868351 3.350000
5547 2 -48.822865 17.154449 3.350000
5548 2 -47.975803 19.986448 3.350000
5549 2 -47.572719 19.272546 3.350000
5550 2 -46.725658 22.104546 3.350000
5551 2 -46.322573 21.390643 3.350000
5552 2 -45.475512 24.222643 3.350000
5553 2 -45.072428 23.508741 3.350000
5554 2 -44.225367 26.340740 3.350000
5555 2 -43.822282 25.626838 3.350000
5556 2 -42.975221 28.458837 3.350000
5557 2 -42.572136 27.744935 3.350000
5558 2 -41.725075 30.576935 3.350000
5559 2 -41.321991 29.863032 3.350000
5560 2 -40.474930 32.695032 3.350000
5561 2 -40.071845 31.981130 3.350000
5562 2 -39.224784 34.813129 3.350000
5563 2 -38.821700 34.099227 3.350000
5564 2 -37.974638 36.931226 3.350000
5565 2 -37.571554 36.217324 3.350000
5566 2 -36.724493 39.049324 3.350000
5567 2 -36.321408 38.335421 3.350000
5568 2 -35.474347 41.167421 3.350000
5569 2 -35.071263 40.453519 3.350000
5570 2 -34.224201 43.285518 3.350000
5571 2 -33.821117 42.571616 3.350000
5572 2 -32.974056 45.403615 3.350000
5573 2 -32.570971 44.689713 3.350000
5574 2 -31.723910 47.521712 3.350000
5575 2 -31.320826 46.807810 3.350000
5576 2 -30.473765 49.639810 3.350000
5577 2 -30.070680 48.925908 3.350000
5578 2 -29.223619 51.757907 3.350000
5579 2 -28.820535 51.044005 3.350000
5580 2 -27.973473 53.876004 3.350000
5581 2 -27.570389 53.162102 3.350000
5582 2 -26.723328 55.994101 3.350000
5583 2 -26.320243 55.280199 3.350000
5584 2 -25.473182 58.112199 3.350000
5585 2 -25.070098 57.398296 3.350000
5586 2 -71.769463 -24.517203 3.350000
5587 2 -71.366378 -25.231105 3.350000
5588 2 -70.519317 -22.399106 3.350000
5589 2 -70.116233 -23.113008 3.350000
5590 2 -69.269172 -20.281008 3.350000
5591 2 -68.866087 -20.994910 3.350000
5592 2 -68.019026 -18.162911 3.350000
5593 2 -67.615942 -18.876813 3.350000
5594 2 -66.768880 -16.044814 3.350000
5595 2 -66.365796 -16.758716 3.350000
5596 2 -65.518735 -13.926717 3.350000
5597 2 -65.115650 -14.640619 3.350000
5598 2 -64.268589 -11.808619 3.350000
5599 2 -63.865505 -12.522522 3.350000
5600 2 -63.018443 -9.690522 3.350000
5601 2 -62.615359 -10.404424 3.350000
5602 2 -61.768298 -7.572425 3.350000
5603 2 -61.365213 -8.286327 3.350000
5604 2 -60.518152 -5.454328 3.350000
5605 2 -60.115068 -6.168230 3.350000
5606 2 -59.268007 -3.336230 3.350000
5607 2 -58.864922 -4.050133 3.350000
5608 2 -58.017861 -1.218133 3.350000
5609 2 -57.614777 -1.932035 3.350000
5610 2 -56.767715 0.899964 3.350000
5611 2 -56.364631 0.186062 3.350000
5612 2 -55.517570 3.018061 3.350000
5613 2 -55.114485 2.304159 3.350000
5614 2 -54.267424 5.136159 3.350000
5615 2 -53.864340 4.422256 3.350000
5616 2 -53.017278 7.254256 3.350000
5617 2 -52.614194 6.540354 3.350000
5618 2 -51.767133 9.372353 3.350000
5619 2 -51.364048 8.658451 3.350000
5620 2 -50.516987 11.490450 3.350000
5621 2 -50.113903 10.776548 3.350000
5622 2 -49.266841 13.608547 3.350000
5623 2 -48.863757 12.894645 3.350000
5624 2 -48.016696 15.726645 3.350000
5625 2 -47.613611 15.012743 3.350000
5626 2 -46.766550 17.844742 3.350000
5627 2 -46.363466 17.130840 3.350000
5628 2 -45.516405 19.962839 3.350000
5629 2 -45.113320 19.248937 3.350000
5630 2 -44.266259 22.080936 3.350000
5631 2 -43.863175 21.367034 3.350000
5632 2 -43.016113 24.199034 3.350000
5633 2 -42.613029 23.485131 3.350000
5634 2 -41.765968 26.317131 3.350000
5635 2 -41.362883 25.603229 3.350000
5636 2 -40.515822 28.435228 3.350000
5637 2 -40.112738 27.721326 3.350000
5638 2 -39.265676 30.553325 3.350000
5639 2 -38.862592 29.839423 3.350000
5640 2 -38.015531 32.671423 3.350000
5641 2 -37.612446 31.957520 3.350000
5642 2 -36.765385 34.789520 3.350000
5643 2 -36.362301 34.075618 3.350000
5644 2 -35.515240 36.907617 3.350000
5645 2 -35.112155 36.193715 3.350000
5646 2 -34.265094 39.025714 3.350000
5647 2 -33.862009 38.311812 3.350000
5648 2 -33.014948 41.143812 3.350000
5649 2 -32.611864 40.429909 3.350000
5650 2 -31.764803 43.261909 3.350000
5651 2 -31.361718 42.548007 3.350000
5652 2 -30.514657 45.380006 3.350000
5653 2 -30.111573 44.666104 3.350000
5654 2 -29.264511 47.498103 3.350000
5655 2 -28.861427 46.784201 3.350000
5656 2 -28.014366 49.616200 3.350000
5657 2 -27.611281 48.902298 3.350000
5658 2 -26.764220 51.734298 3.350000
5659 2 -26.361136 51.020396 3.350000
5660 2 -25.514074 53.852395 3.350000
5661 2 -25.110990 53.138493 3.350000
5662 2 -24.263929 55.970492 3.350000
5663 2 -23.860844 55.256590 3.350000
5664 2 -23.013783 58.088589 3.350000
5665 2 -22.610699 57.374687 3.350000
5666 2 -70.560210 -26.658909 3.350000
5667 2 -70.157125 -27.372811 3.350000
5668 2 -69.310064 -24.540812 3.350000
5669 2 -68.906980 -25.254714 3.350000
5670 2 -68.059918 -22.422715 3.350000
5671 2 -67.656834 -23.136617 3.350000
5672 2 -66.809773 -20.304618 3.350000
5673 2 -66.406688 -21.018520 3.350000
5674 2 -65.559627 -18.186520 3.350000
5675 2 -65.156543 -18.900422 3.350000
5676 2 -64.309482 -16.068423 3.350000
5677 2 -63.906397 -16.782325 3.350000
5678 2 -63.059336 -13.950326 3.350000
5679 2 -62.656251 -14.664228 3.350000
5680 2 -61.809190 -11.832229 3.350000
5681 2 -61.406106 -12.546131 3.350000
5682 2 -60.559045 -9.714131 3.350000
5683 2 -60.155960 -10.428034 3.350000
5684 2 -59.308899 -7.596034 3.350000
5685 2 -58.905815 -8.309936 3.350000
5686 2 -58.058753 -5.477937 3.350000
5687 2 -57.655669 -6.191839 3.350000
5688 2 -56.808608 -3.359840 3.350000
5689 2 -56.405523 -4.073742 3.350000
5690 2 -55.558462 -1.241742 3.350000
5691 2 -55.155378 -1.955645 3.350000
5692 2 -54.308316 0.876355 3.350000
5693 2 -53.905232 0.162453 3.350000
5694 2 -53.058171 2.994452 3.350000
5695 2 -52.655086 2.280550 3.350000
5696 2 -51.808025 5.112549 3.350000
5697 2 -51.404941 4.398647 3.350000
5698 2 -50.557880 7.230646 3.350000
5699 2 -50.154795 6.516744 3.350000
5700 2 -49.307734 9.348744 3.350000
5701 2 -48.904650 8.634842 3.350000
5702 2 -48.057588 11.466841 3.350000
5703 2 -47.654504 10.752939 3.350000
5704 2 -46.807443 13.584938 3.350000
5705 2 -46.404358 12.871036 3.350000
5706 2 -45.557297 15.703035 3.350000
5707 2 -45.154213 14.989133 3.350000
5708 2 -44.307151 17.821133 3.350000
5709 2 -43.904067 17.107230 3.350000
5710 2 -43.057006 19.939230 3.350000
5711 2 -42.653921 19.225328 3.350000
5712 2 -41.806860 22.057327 3.350000
5713 2 -41.403776 21.343425 3.350000
5714 2 -40.556714 24.175424 3.350000
5715 2 -40.153630 23.461522 3.350000
5716 2 -39.306569 26.293522 3.350000
5717 2 -38.903484 25.579619 3.350000
5718 2 -38.056423 28.411619 3.350000
5719 2 -37.653339 27.697717 3.350000
5720 2 -36.806278 30.529716 3.350000
5721 2 -36.403193 29.815814 3.350000
5722 2 -35.556132 32.647813 3.350000
5723 2 -35.153048 31.933911 3.350000
5724 2 -34.305986 34.765911 3.350000
5725 2 -33.902902 34.052008 3.350000
5726 2 -33.055841 36.884008 3.350000
5727 2 -32.652756 36.170106 3.350000
5728 2 -31.805695 39.002105 3.350000
5729 2 -31.402611 38.288203 3.350000
5730 2 -30.555549 41.120202 3.350000
5731 2 -30.152465 40.406300 3.350000
5732 2 -29.305404 43.238299 3.350000
5733 2 -28.902319 42.524397 3.350000
5734 2 -28.055258 45.356397 3.350000
5735 2 -27.652174 44.642495 3.350000
5736 2 -26.805113 47.474494 3.350000
5737 2 -26.402028 46.760592 3.350000
5738 2 -25.554967 49.592591 3.350000
5739 2 -25.151882 48.878689 3.350000
5740 2 -24.304821 51.710688 3.350000
5741 2 -23.901737 50.996786 3.350000
5742 2 -23.054676 53.828786 3.350000
5743 2 -22.651591 53.114883 3.350000
5744 2 -21.804530 55.946883 3.350000
5745 2 -21.401446 55.232981 3.350000
5746 2 -20.554384 58.064980 3.350000
5747 2 -20.151300 57.351078 3.350000
5748 2 -69.350956 -28.800616 3.350000
5749 2 -68.947872 -29.514518 3.350000
5750 2 -68.100811 -26.682519 3.350000
5751 2 -67.697726 -27.396421 3.350000
5752 2 -66.850665 -24.564421 3.350000
5753 2 -66.447581 -25.278323 3.350000
5754 2 -65.600520 -22.446324 3.350000
5755 2 -65.197435 -23.160226 3.350000
5756 2 -64.350374 -20.328227 3.350000
5757 2 -63.947290 -21.042129 3.350000
5758 2 -63.100228 -18.210130 3.350000
5759 2 -62.697144 -18.924032 3.350000
5760 2 -61.850083 -16.092032 3.350000
5761 2 -61.446998 -16.805935 3.350000
5762 2 -60.599937 -13.973935 3.350000
5763 2 -60.196853 -14.687837 3.350000
5764 2 -59.349791 -11.855838 3.350000
5765 2 -58.946707 -12.569740 3.350000
5766 2 -58.099646 -9.737741 3.350000
5767 2 -57.696561 -10.451643 3.350000
5768 2 -56.849500 -7.619643 3.350000
5769 2 -56.446416 -8.333546 3.350000
5770 2 -55.599355 -5.501546 3.350000
5771 2 -55.196270 -6.215448 3.350000
5772 2 -54.349209 -3.383449 3.350000
5773 2 -53.946124 -4.097351 3.350000
5774 2 -53.099063 -1.265352 3.350000
5775 2 -52.695979 -1.979254 3.350000
5776 2 -51.848918 0.852746 3.350000
5777 2 -51.445833 0.138843 3.350000
5778 2 -50.598772 2.970843 3.350000
5779 2 -50.195688 2.256941 3.350000
5780 2 -49.348626 5.088940 3.350000
5781 2 -48.945542 4.375038 3.350000
5782 2 -48.098481 7.207037 3.350000
5783 2 -47.695396 6.493135 3.350000
5784 2 -46.848335 9.325134 3.350000
5785 2 -46.445251 8.611232 3.350000
5786 2 -45.598189 11.443232 3.350000
5787 2 -45.195105 10.729330 3.350000
5788 2 -44.348044 13.561329 3.350000
5789 2 -43.944959 12.847427 3.350000
5790 2 -43.097898 15.679426 3.350000
5791 2 -42.694814 14.965524 3.350000
5792 2 -41.847753 17.797523 3.350000
5793 2 -41.444668 17.083621 3.350000
5794 2 -40.597607 19.915621 3.350000
5795 2 -40.194523 19.201718 3.350000
5796 2 -39.347461 22.033718 3.350000
5797 2 -38.944377 21.319816 3.350000
5798 2 -38.097316 24.151815 3.350000
5799 2 -37.694231 23.437913 3.350000
5800 2 -36.847170 26.269912 3.350000
5801 2 -36.444086 25.556010 3.350000
5802 2 -35.597024 28.388010 3.350000
5803 2 -35.193940 27.674107 3.350000
5804 2 -34.346879 30.506107 3.350000
5805 2 -33.943794 29.792205 3.350000
5806 2 -33.096733 32.624204 3.350000
5807 2 -32.693649 31.910302 3.350000
5808 2 -31.846587 34.742301 3.350000
5809 2 -31.443503 34.028399 3.350000
5810 2 -30.596442 36.860399 3.350000
5811 2 -30.193357 36.146496 3.350000
5812 2 -29.346296 38.978496 3.350000
5813 2 -28.943212 38.264594 3.350000
5814 2 -28.096151 41.096593 3.350000
5815 2 -27.693066 40.382691 3.350000
5816 2 -26.846005 43.214690 3.350000
5817 2 -26.442921 42.500788 3.350000
5818 2 -25.595859 45.332787 3.350000
5819 2 -25.192775 44.618885 3.350000
5820 2 -24.345714 47.450885 3.350000
5821 2 -23.942629 46.736983 3.350000
5822 2 -23.095568 49.568982 3.350000
5823 2 -22.692484 48.855080 3.350000
5824 2 -21.845422 51.687079 3.350000
5825 2 -21.442338 50.973177 3.350000
5826 2 -20.595277 53.805176 3.350000
5827 2 -20.192192 53.091274 3.350000
5828 2 -19.345131 55.923274 3.350000
5829 2 -18.942047 55.209371 3.350000
5830 2 -18.094986 58.041371 3.350000
5831 2 -17.691901 57.327469 3.350000
5832 2 -69.391849 -33.060419 3.350000
5833 2 -68.988765 -33.774322 3.350000
5834 2 -68.141703 -30.942322 3.350000
5835 2 -67.738619 -31.656224 3.350000
5836 2 -66.891558 -28.824225 3.350000
5837 2 -66.488473 -29.538127 3.350000
5838 2 -65.641412 -26.706128 3.350000
5839 2 -65.238328 -27.420030 3.350000
5840 2 -64.391266 -24.588031 3.350000
5841 2 -63.988182 -25.301933 3.350000
5842 2 -63.141121 -22.469933 3.350000
5843 2 -62.738036 -23.183835 3.350000
5844 2 -61.890975 -20.351836 3.350000
5845 2 -61.487891 -21.065738 3.350000
5846 2 -60.640829 -18.233739 3.350000
5847 2 -60.237745 -18.947641 3.350000
5848 2 -59.390684 -16.115642 3.350000
5849 2 -58.987599 -16.829544 3.350000
5850 2 -58.140538 -13.997544 3.350000
5851 2 -57.737454 -14.711447 3.350000
5852 2 -56.890393 -11.879447 3.350000
5853 2 -56.487308 -12.593349 3.350000
5854 2 -55.640247 -9.761350 3.350000
5855 2 -55.237163 -10.475252 3.350000
5856 2 -54.390101 -7.643253 3.350000
5857 2 -53.987017 -8.357155 3.350000
5858 2 -53.139956 -5.525155 3.350000
5859 2 -52.736871 -6.239058 3.350000
5860 2 -51.889810 -3.407058 3.350000
5861 2 -51.486726 -4.120960 3.350000
5862 2 -50.639664 -1.288961 3.350000
5863 2 -50.236580 -2.002863 3.350000
5864 2 -49.389519 0.829136 3.350000
5865 2 -48.986434 0.115234 3.350000
5866 2 -48.139373 2.947233 3.350000
5867 2 -47.736289 2.233331 3.350000
5868 2 -46.889228 5.065331 3.350000
5869 2 -46.486143 4.351429 3.350000
5870 2 -45.639082 7.183428 3.350000
5871 2 -45.235997 6.469526 3.350000
5872 2 -44.388936 9.301525 3.350000
5873 2 -43.985852 8.587623 3.350000
5874 2 -43.138791 11.419622 3.350000
5875 2 -42.735706 10.705720 3.350000
5876 2 -41.888645 13.537720 3.350000
5877 2 -41.485561 12.823818 3.350000
5878 2 -40.638499 15.655817 3.350000
5879 2 -40.235415 14.941915 3.350000
5880 2 -39.388354 17.773914 3.350000
5881 2 -38.985269 17.060012 3.350000
5882 2 -38.138208 19.892011 3.350000
5883 2 -37.735124 19.178109 3.350000
5884 2 -36.888062 22.010109 3.350000
5885 2 -36.484978 21.296206 3.350000
5886 2 -35.637917 24.128206 3.350000
5887 2 -35.234832 23.414304 3.350000
5888 2 -34.387771 26.246303 3.350000
5889 2 -33.984687 25.532401 3.350000
5890 2 -33.137626 28.364400 3.350000
5891 2 -32.734541 27.650498 3.350000
5892 2 -31.887480 30.482498 3.350000
5893 2 -31.484396 29.768595 3.350000
5894 2 -30.637334 32.600595 3.350000
5895 2 -30.234250 31.886693 3.350000
5896 2 -29.387189 34.718692 3.350000
5897 2 -28.984104 34.004790 3.350000
5898 2 -28.137043 36.836789 3.350000
5899 2 -27.733959 36.122887 3.350000
5900 2 -26.886897 38.954886 3.350000
5901 2 -26.483813 38.240984 3.350000
5902 2 -25.636752 41.072984 3.350000
5903 2 -25.233667 40.359082 3.350000
5904 2 -24.386606 43.191081 3.350000
5905 2 -23.983522 42.477179 3.350000
5906 2 -23.136460 45.309178 3.350000
5907 2 -22.733376 44.595276 3.350000
5908 2 -21.886315 47.427275 3.350000
5909 2 -21.483230 46.713373 3.350000
5910 2 -20.636169 49.545373 3.350000
5911 2 -20.233085 48.831471 3.350000
5912 2 -19.386024 51.663470 3.350000
5913 2 -18.982939 50.949568 3.350000
5914 2 -18.135878 53.781567 3.350000
5915 2 -17.732794 53.067665 3.350000
5916 2 -16.885732 55.899664 3.350000
5917 2 -16.482648 55.185762 3.350000
5918 2 -15.635587 58.017762 3.350000
5919 2 -15.232502 57.303859 3.350000
5920 2 -68.182596 -35.202126 3.350000
5921 2 -67.779511 -35.916028 3.350000
5922 2 -66.932450 -33.084029 3.350000
5923 2 -66.529366 -33.797931 3.350000
5924 2 -65.682304 -30.965932 3.350000
5925 2 -65.279220 -31.679834 3.350000
5926 2 -64.432159 -28.847834 3.350000
5927 2 -64.029074 -29.561736 3.350000
5928 2 -63.182013 -26.729737 3.350000
5929 2 -62.778929 -27.443639 3.350000
5930 2 -61.931868 -24.611640 3.350000
5931 2 -61.528783 -25.325542 3.350000
5932 2 -60.681722 -22.493543 3.350000
5933 2 -60.278638 -23.207445 3.350000
5934 2 -59.431576 -20.375445 3.350000
5935 2 -59.028492 -21.089348 3.350000
5936 2 -58.181431 -18.257348 3.350000
5937 2 -57.778346 -18.971250 3.350000
5938 2 -56.931285 -16.139251 3.350000
5939 2 -56.528201 -16.853153 3.350000
5940 2 -55.681139 -14.021154 3.350000
5941 2 -55.278055 -14.735056 3.350000
5942 2 -54.430994 -11.903056 3.350000
5943 2 -54.027909 -12.616959 3.350000
5944 2 -53.180848 -9.784959 3.350000
5945 2 -52.777764 -10.498861 3.350000
5946 2 -51.930702 -7.666862 3.350000
5947 2 -51.527618 -8.380764 3.350000
5948 2 -50.680557 -5.548765 3.350000
5949 2 -50.277472 -6.262667 3.350000
5950 2 -49.430411 -3.430667 3.350000
5951 2 -49.027327 -4.144570 3.350000
5952 2 -48.180266 -1.312570 3.350000
5953 2 -47.777181 -2.026472 3.350000
5954 2 -46.930120 0.805527 3.350000
5955 2 -46.527036 0.091625 3.350000
5956 2 -45.679974 2.923624 3.350000
5957 2 -45.276890 2.209722 3.350000
5958 2 -44.429829 5.041721 3.350000
5959 2 -44.026744 4.327819 3.350000
5960 2 -43.179683 7.159819 3.350000
5961 2 -42.776599 6.445917 3.350000
5962 2 -41.929537 9.277916 3.350000
5963 2 -41.526453 8.564014 3.350000
5964 2 -40.679392 11.396013 3.350000
5965 2 -40.276307 10.682111 3.350000
5966 2 -39.429246 13.514110 3.350000
5967 2 -39.026162 12.800208 3.350000
5968 2 -38.179101 15.632208 3.350000
5969 2 -37.776016 14.918305 3.350000
5970 2 -36.928955 17.750305 3.350000
5971 2 -36.525870 17.036403 3.350000
5972 2 -35.678809 19.868402 3.350000
5973 2 -35.275725 19.154500 3.350000
5974 2 -34.428664 21.986499 3.350000
5975 2 -34.025579 21.272597 3.350000
5976 2 -33.178518 24.104597 3.350000
5977 2 -32.775434 23.390694 3.350000
5978 2 -31.928372 26.222694 3.350000
5979 2 -31.525288 25.508792 3.350000
5980 2 -30.678227 28.340791 3.350000
5981 2 -30.275142 27.626889 3.350000
5982 2 -29.428081 30.458888 3.350000
5983 2 -29.024997 29.744986 3.350000
5984 2 -28.177935 32.576986 3.350000
5985 2 -27.774851 31.863083 3.350000
5986 2 -26.927790 34.695083 3.350000
5987 2 -26.524705 33.981181 3.350000
5988 2 -25.677644 36.813180 3.350000
5989 2 -25.274560 36.099278 3.350000
5990 2 -24.427499 38.931277 3.350000
5991 2 -24.024414 38.217375 3.350000
5992 2 -23.177353 41.049374 3.350000
5993 2 -22.774269 40.335472 3.350000
5994 2 -21.927207 43.167472 3.350000
5995 2 -21.524123 42.453570 3.350000
5996 2 -20.677062 45.285569 3.350000
5997 2 -20.273977 44.571667 3.350000
5998 2 -19.426916 47.403666 3.350000
5999 2 -19.023832 46.689764 3.350000
6000 2 -18.176770 49.521763 3.350000
6001 2 -17.773686 48.807861 3.350000
6002 2 -16.926625 51.639861 3.350000
6003 2 -16.523540 50.925958 3.350000
6004 2 -15.676479 53.757958 3.350000
6005 2 -15.273395 53.044056 3.350000
6006 2 -14.426334 55.876055 3.350000
6007 2 -14.023249 55.162153 3.350000
6008 2 -13.176188 57.994152 3.350000
6009 2 -12.773103 57.280250 3.350000
6010 2 -66.973343 -37.343832 3.350000
6011 2 -66.570258 -38.057735 3.350000
6012 2 -65.723197 -35.225735 3.350000
6013 2 -65.320112 -35.939637 3.350000
6014 2 -64.473051 -33.107638 3.350000
6015 2 -64.069967 -33.821540 3.350000
6016 2 -63.222906 -30.989541 3.350000
6017 2 -62.819821 -31.703443 3.350000
6018 2 -61.972760 -28.871444 3.350000
6019 2 -61.569676 -29.585346 3.350000
6020 2 -60.722614 -26.753346 3.350000
6021 2 -60.319530 -27.467248 3.350000
6022 2 -59.472469 -24.635249 3.350000
6023 2 -59.069384 -25.349151 3.350000
6024 2 -58.222323 -22.517152 3.350000
6025 2 -57.819239 -23.231054 3.350000
6026 2 -56.972177 -20.399055 3.350000
6027 2 -56.569093 -21.112957 3.350000
6028 2 -55.722032 -18.280957 3.350000
6029 2 -55.318947 -18.994860 3.350000
6030 2 -54.471886 -16.162860 3.350000
6031 2 -54.068802 -16.876762 3.350000
6032 2 -53.221741 -14.044763 3.350000
6033 2 -52.818656 -14.758665 3.350000
6034 2 -51.971595 -11.926666 3.350000
6035 2 -51.568511 -12.640568 3.350000
6036 2 -50.721449 -9.808568 3.350000
6037 2 -50.318365 -10.522471 3.350000
6038 2 -49.471304 -7.690471 3.350000
6039 2 -49.068219 -8.404373 3.350000
6040 2 -48.221158 -5.572374 3.350000
6041 2 -47.818074 -6.286276 3.350000
6042 2 -46.971012 -3.454277 3.350000
6043 2 -46.567928 -4.168179 3.350000
6044 2 -45.720867 -1.336179 3.350000
6045 2 -45.317782 -2.050082 3.350000
6046 2 -44.470721 0.781918 3.350000
6047 2 -44.067637 0.068016 3.350000
6048 2 -43.220575 2.900015 3.350000
6049 2 -42.817491 2.186113 3.350000
6050 2 -41.970430 5.018112 3.350000
6051 2 -41.567345 4.304210 3.350000
6052 2 -40.720284 7.136209 3.350000
6053 2 -40.317200 6.422307 3.350000
6054 2 -39.470139 9.254307 3.350000
6055 2 -39.067054 8.540405 3.350000
6056 2 -38.219993 11.372404 3.350000
6057 2 -37.816909 10.658502 3.350000
6058 2 -36.969847 13.490501 3.350000
6059 2 -36.566763 12.776599 3.350000
6060 2 -35.719702 15.608598 3.350000
6061 2 -35.316617 14.894696 3.350000
6062 2 -34.469556 17.726696 3.350000
6063 2 -34.066472 17.012793 3.350000
6064 2 -33.219410 19.844793 3.350000
6065 2 -32.816326 19.130891 3.350000
6066 2 -31.969265 21.962890 3.350000
6067 2 -31.566180 21.248988 3.350000
6068 2 -30.719119 24.080987 3.350000
6069 2 -30.316035 23.367085 3.350000
6070 2 -29.468974 26.199085 3.350000
6071 2 -29.065889 25.485182 3.350000
6072 2 -28.218828 28.317182 3.350000
6073 2 -27.815744 27.603280 3.350000
6074 2 -26.968682 30.435279 3.350000
6075 2 -26.565598 29.721377 3.350000
6076 2 -25.718537 32.553376 3.350000
6077 2 -25.315452 31.839474 3.350000
6078 2 -24.468391 34.671474 3.350000
6079 2 -24.065307 33.957571 3.350000
6080 2 -23.218245 36.789571 3.350000
6081 2 -22.815161 36.075669 3.350000
6082 2 -21.968100 38.907668 3.350000
6083 2 -21.565015 38.193766 3.350000
6084 2 -20.717954 41.025765 3.350000
6085 2 -20.314870 40.311863 3.350000
6086 2 -19.467808 43.143862 3.350000
6087 2 -19.064724 42.429960 3.350000
6088 2 -18.217663 45.261960 3.350000
6089 2 -17.814578 44.548058 3.350000
6090 2 -16.967517 47.380057 3.350000
6091 2 -16.564433 46.666155 3.350000
6092 2 -15.717372 49.498154 3.350000
6093 2 -15.314287 48.784252 3.350000
6094 2 -14.467226 51.616251 3.350000
6095 2 -14.064142 50.902349 3.350000
6096 2 -13.217080 53.734349 3.350000
6097 2 -12.813996 53.020446 3.350000
6098 2 -11.966935 55.852446 3.350000
6099 2 -11.563850 55.138544 3.350000
6100 2 -10.716789 57.970543 3.350000
6101 2 -10.313705 57.256641 3.350000
6102 2 -65.764089 -39.485539 3.350000
6103 2 -65.361005 -40.199441 3.350000
6104 2 -64.513944 -37.367442 3.350000
6105 2 -64.110859 -38.081344 3.350000
6106 2 -63.263798 -35.249345 3.350000
6107 2 -62.860714 -35.963247 3.350000
6108 2 -62.013652 -33.131247 3.350000
6109 2 -61.610568 -33.845149 3.350000
6110 2 -60.763507 -31.013150 3.350000
6111 2 -60.360422 -31.727052 3.350000
6112 2 -59.513361 -28.895053 3.350000
6113 2 -59.110277 -29.608955 3.350000
6114 2 -58.263216 -26.776956 3.350000
6115 2 -57.860131 -27.490858 3.350000
6116 2 -57.013070 -24.658858 3.350000
6117 2 -56.609985 -25.372760 3.350000
6118 2 -55.762924 -22.540761 3.350000
6119 2 -55.359840 -23.254663 3.350000
6120 2 -54.512779 -20.422664 3.350000
6121 2 -54.109694 -21.136566 3.350000
6122 2 -53.262633 -18.304567 3.350000
6123 2 -52.859549 -19.018469 3.350000
6124 2 -52.012487 -16.186469 3.350000
6125 2 -51.609403 -16.900372 3.350000
6126 2 -50.762342 -14.068372 3.350000
6127 2 -50.359257 -14.782274 3.350000
6128 2 -49.512196 -11.950275 3.350000
6129 2 -49.109112 -12.664177 3.350000
6130 2 -48.262050 -9.832178 3.350000
6131 2 -47.858966 -10.546080 3.350000
6132 2 -47.011905 -7.714080 3.350000
6133 2 -46.608820 -8.427983 3.350000
6134 2 -45.761759 -5.595983 3.350000
6135 2 -45.358675 -6.309885 3.350000
6136 2 -44.511614 -3.477886 3.350000
6137 2 -44.108529 -4.191788 3.350000
6138 2 -43.261468 -1.359789 3.350000
6139 2 -42.858384 -2.073691 3.350000
6140 2 -42.011322 0.758308 3.350000
6141 2 -41.608238 0.044406 3.350000
6142 2 -40.761177 2.876406 3.350000
6143 2 -40.358092 2.162504 3.350000
6144 2 -39.511031 4.994503 3.350000
6145 2 -39.107947 4.280601 3.350000
6146 2 -38.260885 7.112600 3.350000
6147 2 -37.857801 6.398698 3.350000
6148 2 -37.010740 9.230697 3.350000
6149 2 -36.607655 8.516795 3.350000
6150 2 -35.760594 11.348795 3.350000
6151 2 -35.357510 10.634892 3.350000
6152 2 -34.510449 13.466892 3.350000
6153 2 -34.107364 12.752990 3.350000
6154 2 -33.260303 15.584989 3.350000
6155 2 -32.857218 14.871087 3.350000
6156 2 -32.010157 17.703086 3.350000
6157 2 -31.607073 16.989184 3.350000
6158 2 -30.760012 19.821184 3.350000
6159 2 -30.356927 19.107281 3.350000
6160 2 -29.509866 21.939281 3.350000
6161 2 -29.106782 21.225379 3.350000
6162 2 -28.259720 24.057378 3.350000
6163 2 -27.856636 23.343476 3.350000
6164 2 -27.009575 26.175475 3.350000
6165 2 -26.606490 25.461573 3.350000
6166 2 -25.759429 28.293573 3.350000
6167 2 -25.356345 27.579670 3.350000
6168 2 -24.509283 30.411670 3.350000
6169 2 -24.106199 29.697768 3.350000
6170 2 -23.259138 32.529767 3.350000
6171 2 -22.856053 31.815865 3.350000
6172 2 -22.008992 34.647864 3.350000
6173 2 -21.605908 33.933962 3.350000
6174 2 -20.758847 36.765961 3.350000
6175 2 -20.355762 36.052059 3.350000
6176 2 -19.508701 38.884059 3.350000
6177 2 -19.105617 38.170157 3.350000
6178 2 -18.258555 41.002156 3.350000
6179 2 -17.855471 40.288254 3.350000
6180 2 -17.008410 43.120253 3.350000
6181 2 -16.605325 42.406351 3.350000
6182 2 -15.758264 45.238350 3.350000
6183 2 -15.355180 44.524448 3.350000
6184 2 -14.508118 47.356448 3.350000
6185 2 -14.105034 46.642545 3.350000
6186 2 -13.257973 49.474545 3.350000
6187 2 -12.854888 48.760643 3.350000
6188 2 -12.007827 51.592642 3.350000
6189 2 -11.604743 50.878740 3.350000
6190 2 -10.757681 53.710739 3.350000
6191 2 -10.354597 52.996837 3.350000
6192 2 -9.507536 55.828837 3.350000
6193 2 -9.104451 55.114934 3.350000
6194 2 -8.257390 57.946934 3.350000
6195 2 -7.854306 57.233032 3.350000
6196 2 -64.554836 -41.627245 3.350000
6197 2 -64.151752 -42.341148 3.350000
6198 2 -63.304690 -39.509148 3.350000
6199 2 -62.901606 -40.223050 3.350000
6200 2 -62.054545 -37.391051 3.350000
6201 2 -61.651460 -38.104953 3.350000
6202 2 -60.804399 -35.272954 3.350000
6203 2 -60.401315 -35.986856 3.350000
6204 2 -59.554254 -33.154857 3.350000
6205 2 -59.151169 -33.868759 3.350000
6206 2 -58.304108 -31.036759 3.350000
6207 2 -57.901024 -31.750661 3.350000
6208 2 -57.053962 -28.918662 3.350000
6209 2 -56.650878 -29.632564 3.350000
6210 2 -55.803817 -26.800565 3.350000
6211 2 -55.400732 -27.514467 3.350000
6212 2 -54.553671 -24.682468 3.350000
6213 2 -54.150587 -25.396370 3.350000
6214 2 -53.303525 -22.564370 3.350000
6215 2 -52.900441 -23.278273 3.350000
6216 2 -52.053380 -20.446273 3.350000
6217 2 -51.650295 -21.160175 3.350000
6218 2 -50.803234 -18.328176 3.350000
6219 2 -50.400150 -19.042078 3.350000
6220 2 -49.553089 -16.210079 3.350000
6221 2 -49.150004 -16.923981 3.350000
6222 2 -48.302943 -14.091981 3.350000
6223 2 -47.899859 -14.805884 3.350000
6224 2 -47.052797 -11.973884 3.350000
6225 2 -46.649713 -12.687786 3.350000
6226 2 -45.802652 -9.855787 3.350000
6227 2 -45.399567 -10.569689 3.350000
6228 2 -44.552506 -7.737690 3.350000
6229 2 -44.149422 -8.451592 3.350000
6230 2 -43.302360 -5.619592 3.350000
6231 2 -42.899276 -6.333495 3.350000
6232 2 -42.052215 -3.501495 3.350000
6233 2 -41.649130 -4.215397 3.350000
6234 2 -40.802069 -1.383398 3.350000
6235 2 -40.398985 -2.097300 3.350000
6236 2 -39.551923 0.734699 3.350000
6237 2 -39.148839 0.020797 3.350000
6238 2 -38.301778 2.852796 3.350000
6239 2 -37.898693 2.138894 3.350000
6240 2 -37.051632 4.970894 3.350000
6241 2 -36.648548 4.256992 3.350000
6242 2 -35.801487 7.088991 3.350000
6243 2 -35.398402 6.375089 3.350000
6244 2 -34.551341 9.207088 3.350000
6245 2 -34.148257 8.493186 3.350000
6246 2 -33.301195 11.325185 3.350000
6247 2 -32.898111 10.611283 3.350000
6248 2 -32.051050 13.443283 3.350000
6249 2 -31.647965 12.729380 3.350000
6250 2 -30.800904 15.561380 3.350000
6251 2 -30.397820 14.847478 3.350000
6252 2 -29.550758 17.679477 3.350000
6253 2 -29.147674 16.965575 3.350000
6254 2 -28.300613 19.797574 3.350000
6255 2 -27.897528 19.083672 3.350000
6256 2 -27.050467 21.915672 3.350000
6257 2 -26.647383 21.201769 3.350000
6258 2 -25.800322 24.033769 3.350000
6259 2 -25.397237 23.319867 3.350000
6260 2 -24.550176 26.151866 3.350000
6261 2 -24.147091 25.437964 3.350000
6262 2 -23.300030 28.269963 3.350000
6263 2 -22.896946 27.556061 3.350000
6264 2 -22.049885 30.388061 3.350000
6265 2 -21.646800 29.674158 3.350000
6266 2 -20.799739 32.506158 3.350000
6267 2 -20.396655 31.792256 3.350000
6268 2 -19.549593 34.624255 3.350000
6269 2 -19.146509 33.910353 3.350000
6270 2 -18.299448 36.742352 3.350000
6271 2 -17.896363 36.028450 3.350000
6272 2 -17.049302 38.860449 3.350000
6273 2 -16.646218 38.146547 3.350000
6274 2 -15.799156 40.978547 3.350000
6275 2 -15.396072 40.264645 3.350000
6276 2 -14.549011 43.096644 3.350000
6277 2 -14.145926 42.382742 3.350000
6278 2 -13.298865 45.214741 3.350000
6279 2 -12.895781 44.500839 3.350000
6280 2 -12.048720 47.332838 3.350000
6281 2 -11.645635 46.618936 3.350000
6282 2 -10.798574 49.450936 3.350000
6283 2 -10.395490 48.737033 3.350000
6284 2 -9.548428 51.569033 3.350000
6285 2 -9.145344 50.855131 3.350000
6286 2 -8.298283 53.687130 3.350000
6287 2 -7.895198 52.973228 3.350000
6288 2 -7.048137 55.805227 3.350000
6289 2 -6.645053 55.091325 3.350000
6290 2 -5.797991 57.923325 3.350000
6291 2 -5.394907 57.209422 3.350000
6292 2 -62.095437 -41.650855 3.350000
6293 2 -61.692353 -42.364757 3.350000
6294 2 -60.845292 -39.532757 3.350000
6295 2 -60.442207 -40.246660 3.350000
6296 2 -59.595146 -37.414660 3.350000
6297 2 -59.192062 -38.128562 3.350000
6298 2 -58.345000 -35.296563 3.350000
6299 2 -57.941916 -36.010465 3.350000
6300 2 -57.094855 -33.178466 3.350000
6301 2 -56.691770 -33.892368 3.350000
6302 2 -55.844709 -31.060369 3.350000
6303 2 -55.441625 -31.774271 3.350000
6304 2 -54.594564 -28.942271 3.350000
6305 2 -54.191479 -29.656173 3.350000
6306 2 -53.344418 -26.824174 3.350000
6307 2 -52.941333 -27.538076 3.350000
6308 2 -52.094272 -24.706077 3.350000
6309 2 -51.691188 -25.419979 3.350000
6310 2 -50.844127 -22.587980 3.350000
6311 2 -50.441042 -23.301882 3.350000
6312 2 -49.593981 -20.469882 3.350000
6313 2 -49.190897 -21.183785 3.350000
6314 2 -48.343835 -18.351785 3.350000
6315 2 -47.940751 -19.065687 3.350000
6316 2 -47.093690 -16.233688 3.350000
6317 2 -46.690605 -16.947590 3.350000
6318 2 -45.843544 -14.115591 3.350000
6319 2 -45.440460 -14.829493 3.350000
6320 2 -44.593398 -11.997493 3.350000
6321 2 -44.190314 -12.711396 3.350000
6322 2 -43.343253 -9.879396 3.350000
6323 2 -42.940168 -10.593298 3.350000
6324 2 -42.093107 -7.761299 3.350000
6325 2 -41.690023 -8.475201 3.350000
6326 2 -40.842962 -5.643202 3.350000
6327 2 -40.439877 -6.357104 3.350000
6328 2 -39.592816 -3.525105 3.350000
6329 2 -39.189732 -4.239007 3.350000
6330 2 -38.342670 -1.407007 3.350000
6331 2 -37.939586 -2.120909 3.350000
6332 2 -37.092525 0.711090 3.350000
6333 2 -36.689440 -0.002812 3.350000
6334 2 -35.842379 2.829187 3.350000
6335 2 -35.439295 2.115285 3.350000
6336 2 -34.592233 4.947284 3.350000
6337 2 -34.189149 4.233382 3.350000
6338 2 -33.342088 7.065382 3.350000
6339 2 -32.939003 6.351480 3.350000
6340 2 -32.091942 9.183479 3.350000
6341 2 -31.688858 8.469577 3.350000
6342 2 -30.841796 11.301576 3.350000
6343 2 -30.438712 10.587674 3.350000
6344 2 -29.591651 13.419673 3.350000
6345 2 -29.188566 12.705771 3.350000
6346 2 -28.341505 15.537771 3.350000
6347 2 -27.938421 14.823868 3.350000
6348 2 -27.091360 17.655868 3.350000
6349 2 -26.688275 16.941966 3.350000
6350 2 -25.841214 19.773965 3.350000
6351 2 -25.438130 19.060063 3.350000
6352 2 -24.591068 21.892062 3.350000
6353 2 -24.187984 21.178160 3.350000
6354 2 -23.340923 24.010160 3.350000
6355 2 -22.937838 23.296257 3.350000
6356 2 -22.090777 26.128257 3.350000
6357 2 -21.687693 25.414355 3.350000
6358 2 -20.840631 28.246354 3.350000
6359 2 -20.437547 27.532452 3.350000
6360 2 -19.590486 30.364451 3.350000
6361 2 -19.187401 29.650549 3.350000
6362 2 -18.340340 32.482548 3.350000
6363 2 -17.937256 31.768646 3.350000
6364 2 -17.090195 34.600646 3.350000
6365 2 -16.687110 33.886744 3.350000
6366 2 -15.840049 36.718743 3.350000
6367 2 -15.436964 36.004841 3.350000
6368 2 -14.589903 38.836840 3.350000
6369 2 -14.186819 38.122938 3.350000
6370 2 -13.339758 40.954937 3.350000
6371 2 -12.936673 40.241035 3.350000
6372 2 -12.089612 43.073035 3.350000
6373 2 -11.686528 42.359133 3.350000
6374 2 -10.839466 45.191132 3.350000
6375 2 -10.436382 44.477230 3.350000
6376 2 -9.589321 47.309229 3.350000
6377 2 -9.186236 46.595327 3.350000
6378 2 -8.339175 49.427326 3.350000
6379 2 -7.936091 48.713424 3.350000
6380 2 -7.089029 51.545424 3.350000
6381 2 -6.685945 50.831521 3.350000
6382 2 -5.838884 53.663521 3.350000
6383 2 -5.435799 52.949619 3.350000
6384 2 -4.588738 55.781618 3.350000
6385 2 -4.185654 55.067716 3.350000
6386 2 -3.338593 57.899715 3.350000
6387 2 -2.935508 57.185813 3.350000
6388 2 -60.886184 -43.792561 3.350000
6389 2 -60.483100 -44.506463 3.350000
6390 2 -59.636038 -41.674464 3.350000
6391 2 -59.232954 -42.388366 3.350000
6392 2 -58.385893 -39.556367 3.350000
6393 2 -57.982808 -40.270269 3.350000
6394 2 -57.135747 -37.438270 3.350000
6395 2 -56.732663 -38.152172 3.350000
6396 2 -55.885602 -35.320172 3.350000
6397 2 -55.482517 -36.034074 3.350000
6398 2 -54.635456 -33.202075 3.350000
6399 2 -54.232372 -33.915977 3.350000
6400 2 -53.385310 -31.083978 3.350000
6401 2 -52.982226 -31.797880 3.350000
6402 2 -52.135165 -28.965881 3.350000
6403 2 -51.732080 -29.679783 3.350000
6404 2 -50.885019 -26.847783 3.350000
6405 2 -50.481935 -27.561686 3.350000
6406 2 -49.634873 -24.729686 3.350000
6407 2 -49.231789 -25.443588 3.350000
6408 2 -48.384728 -22.611589 3.350000
6409 2 -47.981643 -23.325491 3.350000
6410 2 -47.134582 -20.493492 3.350000
6411 2 -46.731498 -21.207394 3.350000
6412 2 -45.884437 -18.375394 3.350000
6413 2 -45.481352 -19.089297 3.350000
6414 2 -44.634291 -16.257297 3.350000
6415 2 -44.231206 -16.971199 3.350000
6416 2 -43.384145 -14.139200 3.350000
6417 2 -42.981061 -14.853102 3.350000
6418 2 -42.134000 -12.021103 3.350000
6419 2 -41.730915 -12.735005 3.350000
6420 2 -40.883854 -9.903005 3.350000
6421 2 -40.480770 -10.616908 3.350000
6422 2 -39.633708 -7.784908 3.350000
6423 2 -39.230624 -8.498810 3.350000
6424 2 -38.383563 -5.666811 3.350000
6425 2 -37.980478 -6.380713 3.350000
6426 2 -37.133417 -3.548714 3.350000
6427 2 -36.730333 -4.262616 3.350000
6428 2 -35.883271 -1.430617 3.350000
6429 2 -35.480187 -2.144519 3.350000
6430 2 -34.633126 0.687481 3.350000
6431 2 -34.230041 -0.026421 3.350000
6432 2 -33.382980 2.805578 3.350000
6433 2 -32.979896 2.091676 3.350000
6434 2 -32.132835 4.923675 3.350000
6435 2 -31.729750 4.209773 3.350000
6436 2 -30.882689 7.041772 3.350000
6437 2 -30.479605 6.327870 3.350000
6438 2 -29.632543 9.159870 3.350000
6439 2 -29.229459 8.445967 3.350000
6440 2 -28.382398 11.277967 3.350000
6441 2 -27.979313 10.564065 3.350000
6442 2 -27.132252 13.396064 3.350000
6443 2 -26.729168 12.682162 3.350000
6444 2 -25.882106 15.514161 3.350000
6445 2 -25.479022 14.800259 3.350000
6446 2 -24.631961 17.632259 3.350000
6447 2 -24.228876 16.918356 3.350000
6448 2 -23.381815 19.750356 3.350000
6449 2 -22.978731 19.036454 3.350000
6450 2 -22.131669 21.868453 3.350000
6451 2 -21.728585 21.154551 3.350000
6452 2 -20.881524 23.986550 3.350000
6453 2 -20.478439 23.272648 3.350000
6454 2 -19.631378 26.104648 3.350000
6455 2 -19.228294 25.390745 3.350000
6456 2 -18.381233 28.222745 3.350000
6457 2 -17.978148 27.508843 3.350000
6458 2 -17.131087 30.340842 3.350000
6459 2 -16.728003 29.626940 3.350000
6460 2 -15.880941 32.458939 3.350000
6461 2 -15.477857 31.745037 3.350000
6462 2 -14.630796 34.577036 3.350000
6463 2 -14.227711 33.863134 3.350000
6464 2 -13.380650 36.695134 3.350000
6465 2 -12.977566 35.981232 3.350000
6466 2 -12.130504 38.813231 3.350000
6467 2 -11.727420 38.099329 3.350000
6468 2 -10.880359 40.931328 3.350000
6469 2 -10.477274 40.217426 3.350000
6470 2 -9.630213 43.049425 3.350000
6471 2 -9.227129 42.335523 3.350000
6472 2 -8.380068 45.167523 3.350000
6473 2 -7.976983 44.453620 3.350000
6474 2 -7.129922 47.285620 3.350000
6475 2 -6.726837 46.571718 3.350000
6476 2 -5.879776 49.403717 3.350000
6477 2 -5.476692 48.689815 3.350000
6478 2 -4.629631 51.521814 3.350000
6479 2 -4.226546 50.807912 3.350000
6480 2 -3.379485 53.639912 3.350000
6481 2 -2.976401 52.926009 3.350000
6482 2 -2.129339 55.758009 3.350000
6483 2 -1.726255 55.044107 3.350000
6484 2 -0.879194 57.876106 3.350000
6485 2 -0.476109 57.162204 3.350000
6486 2 -59.676931 -45.934268 3.350000
6487 2 -59.273847 -46.648170 3.350000
6488 2 -58.426785 -43.816170 3.350000
6489 2 -58.023701 -44.530073 3.350000
6490 2 -57.176640 -41.698073 3.350000
6491 2 -56.773555 -42.411975 3.350000
6492 2 -55.926494 -39.579976 3.350000
6493 2 -55.523410 -40.293878 3.350000
6494 2 -54.676348 -37.461879 3.350000
6495 2 -54.273264 -38.175781 3.350000
6496 2 -53.426203 -35.343782 3.350000
6497 2 -53.023118 -36.057684 3.350000
6498 2 -52.176057 -33.225684 3.350000
6499 2 -51.772973 -33.939586 3.350000
6500 2 -50.925911 -31.107587 3.350000
6501 2 -50.522827 -31.821489 3.350000
6502 2 -49.675766 -28.989490 3.350000
6503 2 -49.272681 -29.703392 3.350000
6504 2 -48.425620 -26.871393 3.350000
6505 2 -48.022536 -27.585295 3.350000
6506 2 -47.175475 -24.753295 3.350000
6507 2 -46.772390 -25.467198 3.350000
6508 2 -45.925329 -22.635198 3.350000
6509 2 -45.522245 -23.349100 3.350000
6510 2 -44.675183 -20.517101 3.350000
6511 2 -44.272099 -21.231003 3.350000
6512 2 -43.425038 -18.399004 3.350000
6513 2 -43.021953 -19.112906 3.350000
6514 2 -42.174892 -16.280906 3.350000
6515 2 -41.771808 -16.994809 3.350000
6516 2 -40.924746 -14.162809 3.350000
6517 2 -40.521662 -14.876711 3.350000
6518 2 -39.674601 -12.044712 3.350000
6519 2 -39.271516 -12.758614 3.350000
6520 2 -38.424455 -9.926615 3.350000
6521 2 -38.021371 -10.640517 3.350000
6522 2 -37.174310 -7.808517 3.350000
6523 2 -36.771225 -8.522420 3.350000
6524 2 -35.924164 -5.690420 3.350000
6525 2 -35.521079 -6.404322 3.350000
6526 2 -34.674018 -3.572323 3.350000
6527 2 -34.270934 -4.286225 3.350000
6528 2 -33.423873 -1.454226 3.350000
6529 2 -33.020788 -2.168128 3.350000
6530 2 -32.173727 0.663871 3.350000
6531 2 -31.770643 -0.050031 3.350000
6532 2 -30.923581 2.781969 3.350000
6533 2 -30.520497 2.068067 3.350000
6534 2 -29.673436 4.900066 3.350000
6535 2 -29.270351 4.186164 3.350000
6536 2 -28.423290 7.018163 3.350000
6537 2 -28.020206 6.304261 3.350000
6538 2 -27.173144 9.136260 3.350000
6539 2 -26.770060 8.422358 3.350000
6540 2 -25.922999 11.254358 3.350000
6541 2 -25.519914 10.540455 3.350000
6542 2 -24.672853 13.372455 3.350000
6543 2 -24.269769 12.658553 3.350000
6544 2 -23.422708 15.490552 3.350000
6545 2 -23.019623 14.776650 3.350000
6546 2 -22.172562 17.608649 3.350000
6547 2 -21.769478 16.894747 3.350000
6548 2 -20.922416 19.726747 3.350000
6549 2 -20.519332 19.012844 3.350000
6550 2 -19.672271 21.844844 3.350000
6551 2 -19.269186 21.130942 3.350000
6552 2 -18.422125 23.962941 3.350000
6553 2 -18.019041 23.249039 3.350000
6554 2 -17.171979 26.081038 3.350000
6555 2 -16.768895 25.367136 3.350000
6556 2 -15.921834 28.199136 3.350000
6557 2 -15.518749 27.485233 3.350000
6558 2 -14.671688 30.317233 3.350000
6559 2 -14.268604 29.603331 3.350000
6560 2 -13.421542 32.435330 3.350000
6561 2 -13.018458 31.721428 3.350000
6562 2 -12.171397 34.553427 3.350000
6563 2 -11.768312 33.839525 3.350000
6564 2 -10.921251 36.671524 3.350000
6565 2 -10.518167 35.957622 3.350000
6566 2 -9.671106 38.789622 3.350000
6567 2 -9.268021 38.075720 3.350000
6568 2 -8.420960 40.907719 3.350000
6569 2 -8.017876 40.193817 3.350000
6570 2 -7.170814 43.025816 3.350000
6571 2 -6.767730 42.311914 3.350000
6572 2 -5.920669 45.143913 3.350000
6573 2 -5.517584 44.430011 3.350000
6574 2 -4.670523 47.262011 3.350000
6575 2 -4.267439 46.548108 3.350000
6576 2 -3.420377 49.380108 3.350000
6577 2 -3.017293 48.666206 3.350000
6578 2 -2.170232 51.498205 3.350000
6579 2 -1.767147 50.784303 3.350000
6580 2 -0.920086 53.616302 3.350000
6581 2 -0.517002 52.902400 3.350000
6582 2 0.330059 55.734400 3.350000
6583 2 0.733144 55.020497 3.350000
6584 2 1.580205 57.852497 3.350000
6585 2 1.983290 57.138595 3.350000
6586 2 -58.467678 -48.075974 3.350000
6587 2 -58.064593 -48.789876 3.350000
6588 2 -57.217532 -45.957877 3.350000
6589 2 -56.814448 -46.671779 3.350000
6590 2 -55.967386 -43.839780 3.350000
6591 2 -55.564302 -44.553682 3.350000
6592 2 -54.717241 -41.721683 3.350000
6593 2 -54.314156 -42.435585 3.350000
6594 2 -53.467095 -39.603585 3.350000
6595 2 -53.064011 -40.317487 3.350000
6596 2 -52.216950 -37.485488 3.350000
6597 2 -51.813865 -38.199390 3.350000
6598 2 -50.966804 -35.367391 3.350000
6599 2 -50.563720 -36.081293 3.350000
6600 2 -49.716658 -33.249294 3.350000
6601 2 -49.313574 -33.963196 3.350000
6602 2 -48.466513 -31.131196 3.350000
6603 2 -48.063428 -31.845098 3.350000
6604 2 -47.216367 -29.013099 3.350000
6605 2 -46.813283 -29.727001 3.350000
6606 2 -45.966221 -26.895002 3.350000
6607 2 -45.563137 -27.608904 3.350000
6608 2 -44.716076 -24.776905 3.350000
6609 2 -44.312991 -25.490807 3.350000
6610 2 -43.465930 -22.658807 3.350000
6611 2 -43.062846 -23.372710 3.350000
6612 2 -42.215784 -20.540710 3.350000
6613 2 -41.812700 -21.254612 3.350000
6614 2 -40.965639 -18.422613 3.350000
6615 2 -40.562554 -19.136515 3.350000
6616 2 -39.715493 -16.304516 3.350000
6617 2 -39.312409 -17.018418 3.350000
6618 2 -38.465348 -14.186418 3.350000
6619 2 -38.062263 -14.900321 3.350000
6620 2 -37.215202 -12.068321 3.350000
6621 2 -36.812118 -12.782223 3.350000
6622 2 -35.965056 -9.950224 3.350000
6623 2 -35.561972 -10.664126 3.350000
6624 2 -34.714911 -7.832127 3.350000
6625 2 -34.311826 -8.546029 3.350000
6626 2 -33.464765 -5.714030 3.350000
6627 2 -33.061681 -6.427932 3.350000
6628 2 -32.214619 -3.595932 3.350000
6629 2 -31.811535 -4.309834 3.350000
6630 2 -30.964474 -1.477835 3.350000
6631 2 -30.561389 -2.191737 3.350000
6632 2 -29.714328 0.640262 3.350000
6633 2 -29.311244 -0.073640 3.350000
6634 2 -28.464183 2.758359 3.350000
6635 2 -28.061098 2.044457 3.350000
6636 2 -27.214037 4.876457 3.350000
6637 2 -26.810952 4.162554 3.350000
6638 2 -25.963891 6.994554 3.350000
6639 2 -25.560807 6.280652 3.350000
6640 2 -24.713746 9.112651 3.350000
6641 2 -24.310661 8.398749 3.350000
6642 2 -23.463600 11.230748 3.350000
6643 2 -23.060516 10.516846 3.350000
6644 2 -22.213454 13.348846 3.350000
6645 2 -21.810370 12.634943 3.350000
6646 2 -20.963309 15.466943 3.350000
6647 2 -20.560224 14.753041 3.350000
6648 2 -19.713163 17.585040 3.350000
6649 2 -19.310079 16.871138 3.350000
6650 2 -18.463017 19.703137 3.350000
6651 2 -18.059933 18.989235 3.350000
6652 2 -17.212872 21.821235 3.350000
6653 2 -16.809787 21.107332 3.350000
6654 2 -15.962726 23.939332 3.350000
6655 2 -15.559642 23.225430 3.350000
6656 2 -14.712581 26.057429 3.350000
6657 2 -14.309496 25.343527 3.350000
6658 2 -13.462435 28.175526 3.350000
6659 2 -13.059351 27.461624 3.350000
6660 2 -12.212289 30.293623 3.350000
6661 2 -11.809205 29.579721 3.350000
6662 2 -10.962144 32.411721 3.350000
6663 2 -10.559059 31.697819 3.350000
6664 2 -9.711998 34.529818 3.350000
6665 2 -9.308914 33.815916 3.350000
6666 2 -8.461852 36.647915 3.350000
6667 2 -8.058768 35.934013 3.350000
6668 2 -7.211707 38.766012 3.350000
6669 2 -6.808622 38.052110 3.350000
6670 2 -5.961561 40.884110 3.350000
6671 2 -5.558477 40.170207 3.350000
6672 2 -4.711415 43.002207 3.350000
6673 2 -4.308331 42.288305 3.350000
6674 2 -3.461270 45.120304 3.350000
6675 2 -3.058185 44.406402 3.350000
6676 2 -2.211124 47.238401 3.350000
6677 2 -1.808040 46.524499 3.350000
6678 2 -0.960979 49.356499 3.350000
6679 2 -0.557894 48.642596 3.350000
6680 2 0.289167 51.474596 3.350000
6681 2 0.692251 50.760694 3.350000
6682 2 1.539313 53.592693 3.350000
6683 2 1.942397 52.878791 3.350000
6684 2 2.789458 55.710790 3.350000
6685 2 3.192543 54.996888 3.350000
6686 2 4.039604 57.828888 3.350000
6687 2 4.442688 57.114985 3.350000
6688 2 -57.258425 -50.217681 3.350000
6689 2 -56.855340 -50.931583 3.350000
6690 2 -56.008279 -48.099583 3.350000
6691 2 -55.605194 -48.813486 3.350000
6692 2 -54.758133 -45.981486 3.350000
6693 2 -54.355049 -46.695388 3.350000
6694 2 -53.507988 -43.863389 3.350000
6695 2 -53.104903 -44.577291 3.350000
6696 2 -52.257842 -41.745292 3.350000
6697 2 -51.854758 -42.459194 3.350000
6698 2 -51.007696 -39.627195 3.350000
6699 2 -50.604612 -40.341097 3.350000
6700 2 -49.757551 -37.509097 3.350000
6701 2 -49.354466 -38.222999 3.350000
6702 2 -48.507405 -35.391000 3.350000
6703 2 -48.104321 -36.104902 3.350000
6704 2 -47.257259 -33.272903 3.350000
6705 2 -46.854175 -33.986805 3.350000
6706 2 -46.007114 -31.154806 3.350000
6707 2 -45.604029 -31.868708 3.350000
6708 2 -44.756968 -29.036708 3.350000
6709 2 -44.353884 -29.750611 3.350000
6710 2 -43.506823 -26.918611 3.350000
6711 2 -43.103738 -27.632513 3.350000
6712 2 -42.256677 -24.800514 3.350000
6713 2 -41.853593 -25.514416 3.350000
6714 2 -41.006531 -22.682417 3.350000
6715 2 -40.603447 -23.396319 3.350000
6716 2 -39.756386 -20.564319 3.350000
6717 2 -39.353301 -21.278222 3.350000
6718 2 -38.506240 -18.446222 3.350000
6719 2 -38.103156 -19.160124 3.350000
6720 2 -37.256094 -16.328125 3.350000
6721 2 -36.853010 -17.042027 3.350000
6722 2 -36.005949 -14.210028 3.350000
6723 2 -35.602864 -14.923930 3.350000
6724 2 -34.755803 -12.091930 3.350000
6725 2 -34.352719 -12.805833 3.350000
6726 2 -33.505657 -9.973833 3.350000
6727 2 -33.102573 -10.687735 3.350000
6728 2 -32.255512 -7.855736 3.350000
6729 2 -31.852427 -8.569638 3.350000
6730 2 -31.005366 -5.737639 3.350000
6731 2 -30.602282 -6.451541 3.350000
6732 2 -29.755221 -3.619542 3.350000
6733 2 -29.352136 -4.333444 3.350000
6734 2 -28.505075 -1.501444 3.350000
6735 2 -28.101991 -2.215346 3.350000
6736 2 -27.254929 0.616653 3.350000
6737 2 -26.851845 -0.097249 3.350000
6738 2 -26.004784 2.734750 3.350000
6739 2 -25.601699 2.020848 3.350000
6740 2 -24.754638 4.852847 3.350000
6741 2 -24.351554 4.138945 3.350000
6742 2 -23.504492 6.970945 3.350000
6743 2 -23.101408 6.257042 3.350000
6744 2 -22.254347 9.089042 3.350000
6745 2 -21.851262 8.375140 3.350000
6746 2 -21.004201 11.207139 3.350000
6747 2 -20.601117 10.493237 3.350000
6748 2 -19.754056 13.325236 3.350000
6749 2 -19.350971 12.611334 3.350000
6750 2 -18.503910 15.443334 3.350000
6751 2 -18.100825 14.729431 3.350000
6752 2 -17.253764 17.561431 3.350000
6753 2 -16.850680 16.847529 3.350000
6754 2 -16.003619 19.679528 3.350000
6755 2 -15.600534 18.965626 3.350000
6756 2 -14.753473 21.797625 3.350000
6757 2 -14.350389 21.083723 3.350000
6758 2 -13.503327 23.915723 3.350000
6759 2 -13.100243 23.201820 3.350000
6760 2 -12.253182 26.033820 3.350000
6761 2 -11.850097 25.319918 3.350000
6762 2 -11.003036 28.151917 3.350000
6763 2 -10.599952 27.438015 3.350000
6764 2 -9.752890 30.270014 3.350000
6765 2 -9.349806 29.556112 3.350000
6766 2 -8.502745 32.388111 3.350000
6767 2 -8.099660 31.674209 3.350000
6768 2 -7.252599 34.506209 3.350000
6769 2 -6.849515 33.792307 3.350000
6770 2 -6.002454 36.624306 3.350000
6771 2 -5.599369 35.910404 3.350000
6772 2 -4.752308 38.742403 3.350000
6773 2 -4.349224 38.028501 3.350000
6774 2 -3.502162 40.860500 3.350000
6775 2 -3.099078 40.146598 3.350000
6776 2 -2.252017 42.978598 3.350000
6777 2 -1.848932 42.264695 3.350000
6778 2 -1.001871 45.096695 3.350000
6779 2 -0.598787 44.382793 3.350000
6780 2 0.248275 47.214792 3.350000
6781 2 0.651359 46.500890 3.350000
6782 2 1.498420 49.332889 3.350000
6783 2 1.901505 48.618987 3.350000
6784 2 2.748566 51.450987 3.350000
6785 2 3.151650 50.737084 3.350000
6786 2 3.998711 53.569084 3.350000
6787 2 4.401796 52.855182 3.350000
6788 2 5.248857 55.687181 3.350000
6789 2 5.651942 54.973279 3.350000
6790 2 6.499003 57.805278 3.350000
6791 2 6.902087 57.091376 3.350000
6792 2 -56.049171 -52.359387 3.350000
6793 2 -54.799026 -50.241290 3.350000
6794 2 -54.395941 -50.955192 3.350000
6795 2 -53.548880 -48.123193 3.350000
6796 2 -53.145796 -48.837095 3.350000
6797 2 -52.298734 -46.005095 3.350000
6798 2 -51.895650 -46.718998 3.350000
6799 2 -51.048589 -43.886998 3.350000
6800 2 -50.645504 -44.600900 3.350000
6801 2 -49.798443 -41.768901 3.350000
6802 2 -49.395359 -42.482803 3.350000
6803 2 -48.548298 -39.650804 3.350000
6804 2 -48.145213 -40.364706 3.350000
6805 2 -47.298152 -37.532707 3.350000
6806 2 -46.895067 -38.246609 3.350000
6807 2 -46.048006 -35.414609 3.350000
6808 2 -45.644922 -36.128511 3.350000
6809 2 -44.797861 -33.296512 3.350000
6810 2 -44.394776 -34.010414 3.350000
6811 2 -43.547715 -31.178415 3.350000
6812 2 -43.144631 -31.892317 3.350000
6813 2 -42.297569 -29.060318 3.350000
6814 2 -41.894485 -29.774220 3.350000
6815 2 -41.047424 -26.942220 3.350000
6816 2 -40.644339 -27.656123 3.350000
6817 2 -39.797278 -24.824123 3.350000
6818 2 -39.394194 -25.538025 3.350000
6819 2 -38.547132 -22.706026 3.350000
6820 2 -38.144048 -23.419928 3.350000
6821 2 -37.296987 -20.587929 3.350000
6822 2 -36.893902 -21.301831 3.350000
6823 2 -36.046841 -18.469831 3.350000
6824 2 -35.643757 -19.183734 3.350000
6825 2 -34.796696 -16.351734 3.350000
6826 2 -34.393611 -17.065636 3.350000
6827 2 -33.546550 -14.233637 3.350000
6828 2 -33.143466 -14.947539 3.350000
6829 2 -32.296404 -12.115540 3.350000
6830 2 -31.893320 -12.829442 3.350000
6831 2 -31.046259 -9.997443 3.350000
6832 2 -30.643174 -10.711345 3.350000
6833 2 -29.796113 -7.879345 3.350000
6834 2 -29.393029 -8.593247 3.350000
6835 2 -28.545967 -5.761248 3.350000
6836 2 -28.142883 -6.475150 3.350000
6837 2 -27.295822 -3.643151 3.350000
6838 2 -26.892737 -4.357053 3.350000
6839 2 -26.045676 -1.525054 3.350000
6840 2 -25.642592 -2.238956 3.350000
6841 2 -24.795530 0.593044 3.350000
6842 2 -24.392446 -0.120858 3.350000
6843 2 -23.545385 2.711141 3.350000
6844 2 -23.142300 1.997239 3.350000
6845 2 -22.295239 4.829238 3.350000
6846 2 -21.892155 4.115336 3.350000
6847 2 -21.045094 6.947335 3.350000
6848 2 -20.642009 6.233433 3.350000
6849 2 -19.794948 9.065433 3.350000
6850 2 -19.391864 8.351530 3.350000
6851 2 -18.544802 11.183530 3.350000
6852 2 -18.141718 10.469628 3.350000
6853 2 -17.294657 13.301627 3.350000
6854 2 -16.891572 12.587725 3.350000
6855 2 -16.044511 15.419724 3.350000
6856 2 -15.641427 14.705822 3.350000
6857 2 -14.794365 17.537822 3.350000
6858 2 -14.391281 16.823919 3.350000
6859 2 -13.544220 19.655919 3.350000
6860 2 -13.141135 18.942017 3.350000
6861 2 -12.294074 21.774016 3.350000
6862 2 -11.890990 21.060114 3.350000
6863 2 -11.043929 23.892113 3.350000
6864 2 -10.640844 23.178211 3.350000
6865 2 -9.793783 26.010210 3.350000
6866 2 -9.390699 25.296308 3.350000
6867 2 -8.543637 28.128308 3.350000
6868 2 -8.140553 27.414406 3.350000
6869 2 -7.293492 30.246405 3.350000
6870 2 -6.890407 29.532503 3.350000
6871 2 -6.043346 32.364502 3.350000
6872 2 -5.640262 31.650600 3.350000
6873 2 -4.793200 34.482599 3.350000
6874 2 -4.390116 33.768697 3.350000
6875 2 -3.543055 36.600697 3.350000
6876 2 -3.139970 35.886795 3.350000
6877 2 -2.292909 38.718794 3.350000
6878 2 -1.889825 38.004892 3.350000
6879 2 -1.042763 40.836891 3.350000
6880 2 -0.639679 40.122989 3.350000
6881 2 0.207382 42.954988 3.350000
6882 2 0.610467 42.241086 3.350000
6883 2 1.457528 45.073086 3.350000
6884 2 1.860612 44.359183 3.350000
6885 2 2.707673 47.191183 3.350000
6886 2 3.110758 46.477281 3.350000
6887 2 3.957819 49.309280 3.350000
6888 2 4.360903 48.595378 3.350000
6889 2 5.207965 51.427377 3.350000
6890 2 5.611049 50.713475 3.350000
6891 2 6.458110 53.545475 3.350000
6892 2 6.861195 52.831572 3.350000
6893 2 7.708256 55.663572 3.350000
6894 2 8.111340 54.949670 3.350000
6895 2 8.958402 57.781669 3.350000
6896 2 9.361486 57.067767 3.350000
6897 2 -53.589772 -52.382996 3.350000
6898 2 -53.186688 -53.096899 3.350000
6899 2 -52.339627 -50.264899 3.350000
6900 2 -51.936542 -50.978801 3.350000
6901 2 -51.089481 -48.146802 3.350000
6902 2 -50.686397 -48.860704 3.350000
6903 2 -49.839336 -46.028705 3.350000
6904 2 -49.436251 -46.742607 3.350000
6905 2 -48.589190 -43.910608 3.350000
6906 2 -48.186106 -44.624510 3.350000
6907 2 -47.339044 -41.792510 3.350000
6908 2 -46.935960 -42.506412 3.350000
6909 2 -46.088899 -39.674413 3.350000
6910 2 -45.685814 -40.388315 3.350000
6911 2 -44.838753 -37.556316 3.350000
6912 2 -44.435669 -38.270218 3.350000
6913 2 -43.588607 -35.438219 3.350000
6914 2 -43.185523 -36.152121 3.350000
6915 2 -42.338462 -33.320121 3.350000
6916 2 -41.935377 -34.034024 3.350000
6917 2 -41.088316 -31.202024 3.350000
6918 2 -40.685232 -31.915926 3.350000
6919 2 -39.838171 -29.083927 3.350000
6920 2 -39.435086 -29.797829 3.350000
6921 2 -38.588025 -26.965830 3.350000
6922 2 -38.184940 -27.679732 3.350000
6923 2 -37.337879 -24.847732 3.350000
6924 2 -36.934795 -25.561635 3.350000
6925 2 -36.087734 -22.729635 3.350000
6926 2 -35.684649 -23.443537 3.350000
6927 2 -34.837588 -20.611538 3.350000
6928 2 -34.434504 -21.325440 3.350000
6929 2 -33.587442 -18.493441 3.350000
6930 2 -33.184358 -19.207343 3.350000
6931 2 -32.337297 -16.375343 3.350000
6932 2 -31.934212 -17.089246 3.350000
6933 2 -31.087151 -14.257246 3.350000
6934 2 -30.684067 -14.971148 3.350000
6935 2 -29.837005 -12.139149 3.350000
6936 2 -29.433921 -12.853051 3.350000
6937 2 -28.586860 -10.021052 3.350000
6938 2 -28.183775 -10.734954 3.350000
6939 2 -27.336714 -7.902955 3.350000
6940 2 -26.933630 -8.616857 3.350000
6941 2 -26.086569 -5.784857 3.350000
6942 2 -25.683484 -6.498759 3.350000
6943 2 -24.836423 -3.666760 3.350000
6944 2 -24.433339 -4.380662 3.350000
6945 2 -23.586277 -1.548663 3.350000
6946 2 -23.183193 -2.262565 3.350000
6947 2 -22.336132 0.569434 3.350000
6948 2 -21.933047 -0.144468 3.350000
6949 2 -21.085986 2.687532 3.350000
6950 2 -20.682902 1.973629 3.350000
6951 2 -19.835840 4.805629 3.350000
6952 2 -19.432756 4.091727 3.350000
6953 2 -18.585695 6.923726 3.350000
6954 2 -18.182610 6.209824 3.350000
6955 2 -17.335549 9.041823 3.350000
6956 2 -16.932465 8.327921 3.350000
6957 2 -16.085404 11.159921 3.350000
6958 2 -15.682319 10.446018 3.350000
6959 2 -14.835258 13.278018 3.350000
6960 2 -14.432173 12.564116 3.350000
6961 2 -13.585112 15.396115 3.350000
6962 2 -13.182028 14.682213 3.350000
6963 2 -12.334967 17.514212 3.350000
6964 2 -11.931882 16.800310 3.350000
6965 2 -11.084821 19.632310 3.350000
6966 2 -10.681737 18.918407 3.350000
6967 2 -9.834675 21.750407 3.350000
6968 2 -9.431591 21.036505 3.350000
6969 2 -8.584530 23.868504 3.350000
6970 2 -8.181445 23.154602 3.350000
6971 2 -7.334384 25.986601 3.350000
6972 2 -6.931300 25.272699 3.350000
6973 2 -6.084238 28.104698 3.350000
6974 2 -5.681154 27.390796 3.350000
6975 2 -4.834093 30.222796 3.350000
6976 2 -4.431008 29.508894 3.350000
6977 2 -3.583947 32.340893 3.350000
6978 2 -3.180863 31.626991 3.350000
6979 2 -2.333802 34.458990 3.350000
6980 2 -1.930717 33.745088 3.350000
6981 2 -1.083656 36.577087 3.350000
6982 2 -0.680572 35.863185 3.350000
6983 2 0.166490 38.695185 3.350000
6984 2 0.569574 37.981282 3.350000
6985 2 1.416635 40.813282 3.350000
6986 2 1.819720 40.099380 3.350000
6987 2 2.666781 42.931379 3.350000
6988 2 3.069865 42.217477 3.350000
6989 2 3.916927 45.049476 3.350000
6990 2 4.320011 44.335574 3.350000
6991 2 5.167072 47.167574 3.350000
6992 2 5.570157 46.453671 3.350000
6993 2 6.417218 49.285671 3.350000
6994 2 6.820302 48.571769 3.350000
6995 2 7.667364 51.403768 3.350000
6996 2 8.070448 50.689866 3.350000
6997 2 8.917509 53.521865 3.350000
6998 2 9.320594 52.807963 3.350000
6999 2 10.167655 55.639963 3.350000
7000 2 10.570739 54.926060 3.350000
7001 2 11.417800 57.758060 3.350000
7002 2 11.820885 57.044158 3.350000
7003 2 -52.380519 -54.524703 3.350000
7004 2 -51.977435 -55.238605 3.350000
7005 2 -51.130374 -52.406606 3.350000
7006 2 -50.727289 -53.120508 3.350000
7007 2 -49.880228 -50.288508 3.350000
7008 2 -49.477144 -51.002411 3.350000
7009 2 -48.630082 -48.170411 3.350000
7010 2 -48.226998 -48.884313 3.350000
7011 2 -47.379937 -46.052314 3.350000
7012 2 -46.976852 -46.766216 3.350000
7013 2 -46.129791 -43.934217 3.350000
7014 2 -45.726707 -44.648119 3.350000
7015 2 -44.879645 -41.816120 3.350000
7016 2 -44.476561 -42.530022 3.350000
7017 2 -43.629500 -39.698022 3.350000
7018 2 -43.226415 -40.411924 3.350000
7019 2 -42.379354 -37.579925 3.350000
7020 2 -41.976270 -38.293827 3.350000
7021 2 -41.129209 -35.461828 3.350000
7022 2 -40.726124 -36.175730 3.350000
7023 2 -39.879063 -33.343731 3.350000
7024 2 -39.475979 -34.057633 3.350000
7025 2 -38.628917 -31.225633 3.350000
7026 2 -38.225833 -31.939536 3.350000
7027 2 -37.378772 -29.107536 3.350000
7028 2 -36.975687 -29.821438 3.350000
7029 2 -36.128626 -26.989439 3.350000
7030 2 -35.725542 -27.703341 3.350000
7031 2 -34.878480 -24.871342 3.350000
7032 2 -34.475396 -25.585244 3.350000
7033 2 -33.628335 -22.753244 3.350000
7034 2 -33.225250 -23.467147 3.350000
7035 2 -32.378189 -20.635147 3.350000
7036 2 -31.975105 -21.349049 3.350000
7037 2 -31.128044 -18.517050 3.350000
7038 2 -30.724959 -19.230952 3.350000
7039 2 -29.877898 -16.398953 3.350000
7040 2 -29.474814 -17.112855 3.350000
7041 2 -28.627752 -14.280855 3.350000
7042 2 -28.224668 -14.994758 3.350000
7043 2 -27.377607 -12.162758 3.350000
7044 2 -26.974522 -12.876660 3.350000
7045 2 -26.127461 -10.044661 3.350000
7046 2 -25.724377 -10.758563 3.350000
7047 2 -24.877315 -7.926564 3.350000
7048 2 -24.474231 -8.640466 3.350000
7049 2 -23.627170 -5.808467 3.350000
7050 2 -23.224085 -6.522369 3.350000
7051 2 -22.377024 -3.690369 3.350000
7052 2 -21.973940 -4.404271 3.350000
7053 2 -21.126878 -1.572272 3.350000
7054 2 -20.723794 -2.286174 3.350000
7055 2 -19.876733 0.545825 3.350000
7056 2 -19.473648 -0.168077 3.350000
7057 2 -18.626587 2.663922 3.350000
7058 2 -18.223503 1.950020 3.350000
7059 2 -17.376442 4.782020 3.350000
7060 2 -16.973357 4.068117 3.350000
7061 2 -16.126296 6.900117 3.350000
7062 2 -15.723212 6.186215 3.350000
7063 2 -14.876150 9.018214 3.350000
7064 2 -14.473066 8.304312 3.350000
7065 2 -13.626005 11.136311 3.350000
7066 2 -13.222920 10.422409 3.350000
7067 2 -12.375859 13.254409 3.350000
7068 2 -11.972775 12.540506 3.350000
7069 2 -11.125713 15.372506 3.350000
7070 2 -10.722629 14.658604 3.350000
7071 2 -9.875568 17.490603 3.350000
7072 2 -9.472483 16.776701 3.350000
7073 2 -8.625422 19.608700 3.350000
7074 2 -8.222338 18.894798 3.350000
7075 2 -7.375277 21.726798 3.350000
7076 2 -6.972192 21.012895 3.350000
7077 2 -6.125131 23.844895 3.350000
7078 2 -5.722046 23.130993 3.350000
7079 2 -4.874985 25.962992 3.350000
7080 2 -4.471901 25.249090 3.350000
7081 2 -3.624840 28.081089 3.350000
7082 2 -3.221755 27.367187 3.350000
7083 2 -2.374694 30.199186 3.350000
7084 2 -1.971610 29.485284 3.350000
7085 2 -1.124548 32.317284 3.350000
7086 2 -0.721464 31.603382 3.350000
7087 2 0.125597 34.435381 3.350000
7088 2 0.528682 33.721479 3.350000
7089 2 1.375743 36.553478 3.350000
7090 2 1.778827 35.839576 3.350000
7091 2 2.625889 38.671575 3.350000
7092 2 3.028973 37.957673 3.350000
7093 2 3.876034 40.789673 3.350000
7094 2 4.279119 40.075770 3.350000
7095 2 5.126180 42.907770 3.350000
7096 2 5.529264 42.193868 3.350000
7097 2 6.376325 45.025867 3.350000
7098 2 6.779410 44.311965 3.350000
7099 2 7.626471 47.143964 3.350000
7100 2 8.029555 46.430062 3.350000
7101 2 8.876617 49.262062 3.350000
7102 2 9.279701 48.548159 3.350000
7103 2 10.126762 51.380159 3.350000
7104 2 10.529847 50.666257 3.350000
7105 2 11.376908 53.498256 3.350000
7106 2 11.779992 52.784354 3.350000
7107 2 12.627054 55.616353 3.350000
7108 2 13.030138 54.902451 3.350000
7109 2 13.877199 57.734450 3.350000
7110 2 14.280284 57.020548 3.350000
7111 2 -51.171266 -56.666409 3.350000
7112 2 -50.768182 -57.380312 3.350000
7113 2 -49.921120 -54.548312 3.350000
7114 2 -49.518036 -55.262214 3.350000
7115 2 -48.670975 -52.430215 3.350000
7116 2 -48.267890 -53.144117 3.350000
7117 2 -47.420829 -50.312118 3.350000
7118 2 -47.017745 -51.026020 3.350000
7119 2 -46.170684 -48.194021 3.350000
7120 2 -45.767599 -48.907923 3.350000
7121 2 -44.920538 -46.075923 3.350000
7122 2 -44.517454 -46.789825 3.350000
7123 2 -43.670392 -43.957826 3.350000
7124 2 -43.267308 -44.671728 3.350000
7125 2 -42.420247 -41.839729 3.350000
7126 2 -42.017162 -42.553631 3.350000
7127 2 -41.170101 -39.721632 3.350000
7128 2 -40.767017 -40.435534 3.350000
7129 2 -39.919955 -37.603534 3.350000
7130 2 -39.516871 -38.317436 3.350000
7131 2 -38.669810 -35.485437 3.350000
7132 2 -38.266725 -36.199339 3.350000
7133 2 -37.419664 -33.367340 3.350000
7134 2 -37.016580 -34.081242 3.350000
7135 2 -36.169519 -31.249243 3.350000
7136 2 -35.766434 -31.963145 3.350000
7137 2 -34.919373 -29.131145 3.350000
7138 2 -34.516288 -29.845048 3.350000
7139 2 -33.669227 -27.013048 3.350000
7140 2 -33.266143 -27.726950 3.350000
7141 2 -32.419082 -24.894951 3.350000
7142 2 -32.015997 -25.608853 3.350000
7143 2 -31.168936 -22.776854 3.350000
7144 2 -30.765852 -23.490756 3.350000
7145 2 -29.918790 -20.658756 3.350000
7146 2 -29.515706 -21.372659 3.350000
7147 2 -28.668645 -18.540659 3.350000
7148 2 -28.265560 -19.254561 3.350000
7149 2 -27.418499 -16.422562 3.350000
7150 2 -27.015415 -17.136464 3.350000
7151 2 -26.168353 -14.304465 3.350000
7152 2 -25.765269 -15.018367 3.350000
7153 2 -24.918208 -12.186368 3.350000
7154 2 -24.515123 -12.900270 3.350000
7155 2 -23.668062 -10.068270 3.350000
7156 2 -23.264978 -10.782172 3.350000
7157 2 -22.417917 -7.950173 3.350000
7158 2 -22.014832 -8.664075 3.350000
7159 2 -21.167771 -5.832076 3.350000
7160 2 -20.764687 -6.545978 3.350000
7161 2 -19.917625 -3.713979 3.350000
7162 2 -19.514541 -4.427881 3.350000
7163 2 -18.667480 -1.595881 3.350000
7164 2 -18.264395 -2.309784 3.350000
7165 2 -17.417334 0.522216 3.350000
7166 2 -17.014250 -0.191686 3.350000
7167 2 -16.167188 2.640313 3.350000
7168 2 -15.764104 1.926411 3.350000
7169 2 -14.917043 4.758410 3.350000
7170 2 -14.513958 4.044508 3.350000
7171 2 -13.666897 6.876508 3.350000
7172 2 -13.263813 6.162605 3.350000
7173 2 -12.416751 8.994605 3.350000
7174 2 -12.013667 8.280703 3.350000
7175 2 -11.166606 11.112702 3.350000
7176 2 -10.763521 10.398800 3.350000
7177 2 -9.916460 13.230799 3.350000
7178 2 -9.513376 12.516897 3.350000
7179 2 -8.666315 15.348897 3.350000
7180 2 -8.263230 14.634994 3.350000
7181 2 -7.416169 17.466994 3.350000
7182 2 -7.013085 16.753092 3.350000
7183 2 -6.166023 19.585091 3.350000
7184 2 -5.762939 18.871189 3.350000
7185 2 -4.915878 21.703188 3.350000
7186 2 -4.512793 20.989286 3.350000
7187 2 -3.665732 23.821285 3.350000
7188 2 -3.262648 23.107383 3.350000
7189 2 -2.415586 25.939383 3.350000
7190 2 -2.012502 25.225481 3.350000
7191 2 -1.165441 28.057480 3.350000
7192 2 -0.762356 27.343578 3.350000
7193 2 0.084705 30.175577 3.350000
7194 2 0.487789 29.461675 3.350000
7195 2 1.334850 32.293674 3.350000
7196 2 1.737935 31.579772 3.350000
7197 2 2.584996 34.411772 3.350000
7198 2 2.988081 33.697869 3.350000
7199 2 3.835142 36.529869 3.350000
7200 2 4.238226 35.815967 3.350000
7201 2 5.085287 38.647966 3.350000
7202 2 5.488372 37.934064 3.350000
7203 2 6.335433 40.766063 3.350000
7204 2 6.738517 40.052161 3.350000
7205 2 7.585579 42.884161 3.350000
7206 2 7.988663 42.170258 3.350000
7207 2 8.835724 45.002258 3.350000
7208 2 9.238809 44.288356 3.350000
7209 2 10.085870 47.120355 3.350000
7210 2 10.488954 46.406453 3.350000
7211 2 11.336016 49.238452 3.350000
7212 2 11.739100 48.524550 3.350000
7213 2 12.586161 51.356550 3.350000
7214 2 12.989246 50.642647 3.350000
7215 2 13.836307 53.474647 3.350000
7216 2 14.239391 52.760745 3.350000
7217 2 15.086452 55.592744 3.350000
7218 2 15.489537 54.878842 3.350000
7219 2 16.336598 57.710841 3.350000
7220 2 16.739682 56.996939 3.350000
7221 2 -48.711867 -56.690019 3.350000
7222 2 -48.308783 -57.403921 3.350000
7223 2 -47.461722 -54.571921 3.350000
7224 2 -47.058637 -55.285824 3.350000
7225 2 -46.211576 -52.453824 3.350000
7226 2 -45.808492 -53.167726 3.350000
7227 2 -44.961430 -50.335727 3.350000
7228 2 -44.558346 -51.049629 3.350000
7229 2 -43.711285 -48.217630 3.350000
7230 2 -43.308200 -48.931532 3.350000
7231 2 -42.461139 -46.099533 3.350000
7232 2 -42.058055 -46.813435 3.350000
7233 2 -41.210993 -43.981435 3.350000
7234 2 -40.807909 -44.695337 3.350000
7235 2 -39.960848 -41.863338 3.350000
7236 2 -39.557763 -42.577240 3.350000
7237 2 -38.710702 -39.745241 3.350000
7238 2 -38.307618 -40.459143 3.350000
7239 2 -37.460557 -37.627144 3.350000
7240 2 -37.057472 -38.341046 3.350000
7241 2 -36.210411 -35.509046 3.350000
7242 2 -35.807327 -36.222949 3.350000
7243 2 -34.960265 -33.390949 3.350000
7244 2 -34.557181 -34.104851 3.350000
7245 2 -33.710120 -31.272852 3.350000
7246 2 -33.307035 -31.986754 3.350000
7247 2 -32.459974 -29.154755 3.350000
7248 2 -32.056890 -29.868657 3.350000
7249 2 -31.209828 -27.036657 3.350000
7250 2 -30.806744 -27.750560 3.350000
7251 2 -29.959683 -24.918560 3.350000
7252 2 -29.556598 -25.632462 3.350000
7253 2 -28.709537 -22.800463 3.350000
7254 2 -28.306453 -23.514365 3.350000
7255 2 -27.459392 -20.682366 3.350000
7256 2 -27.056307 -21.396268 3.350000
7257 2 -26.209246 -18.564268 3.350000
7258 2 -25.806161 -19.278171 3.350000
7259 2 -24.959100 -16.446171 3.350000
7260 2 -24.556016 -17.160073 3.350000
7261 2 -23.708955 -14.328074 3.350000
7262 2 -23.305870 -15.041976 3.350000
7263 2 -22.458809 -12.209977 3.350000
7264 2 -22.055725 -12.923879 3.350000
7265 2 -21.208663 -10.091880 3.350000
7266 2 -20.805579 -10.805782 3.350000
7267 2 -19.958518 -7.973782 3.350000
7268 2 -19.555433 -8.687684 3.350000
7269 2 -18.708372 -5.855685 3.350000
7270 2 -18.305288 -6.569587 3.350000
7271 2 -17.458226 -3.737588 3.350000
7272 2 -17.055142 -4.451490 3.350000
7273 2 -16.208081 -1.619491 3.350000
7274 2 -15.804996 -2.333393 3.350000
7275 2 -14.957935 0.498607 3.350000
7276 2 -14.554851 -0.215296 3.350000
7277 2 -13.707790 2.616704 3.350000
7278 2 -13.304705 1.902802 3.350000
7279 2 -12.457644 4.734801 3.350000
7280 2 -12.054560 4.020899 3.350000
7281 2 -11.207498 6.852898 3.350000
7282 2 -10.804414 6.138996 3.350000
7283 2 -9.957353 8.970996 3.350000
7284 2 -9.554268 8.257093 3.350000
7285 2 -8.707207 11.089093 3.350000
7286 2 -8.304123 10.375191 3.350000
7287 2 -7.457061 13.207190 3.350000
7288 2 -7.053977 12.493288 3.350000
7289 2 -6.206916 15.325287 3.350000
7290 2 -5.803831 14.611385 3.350000
7291 2 -4.956770 17.443385 3.350000
7292 2 -4.553686 16.729482 3.350000
7293 2 -3.706624 19.561482 3.350000
7294 2 -3.303540 18.847580 3.350000
7295 2 -2.456479 21.679579 3.350000
7296 2 -2.053394 20.965677 3.350000
7297 2 -1.206333 23.797676 3.350000
7298 2 -0.803249 23.083774 3.350000
7299 2 0.043812 25.915773 3.350000
7300 2 0.446897 25.201871 3.350000
7301 2 1.293958 28.033871 3.350000
7302 2 1.697042 27.319969 3.350000
7303 2 2.544104 30.151968 3.350000
7304 2 2.947188 29.438066 3.350000
7305 2 3.794249 32.270065 3.350000
7306 2 4.197334 31.556163 3.350000
7307 2 5.044395 34.388162 3.350000
7308 2 5.447479 33.674260 3.350000
7309 2 6.294541 36.506260 3.350000
7310 2 6.697625 35.792357 3.350000
7311 2 7.544686 38.624357 3.350000
7312 2 7.947771 37.910455 3.350000
7313 2 8.794832 40.742454 3.350000
7314 2 9.197916 40.028552 3.350000
7315 2 10.044977 42.860551 3.350000
7316 2 10.448062 42.146649 3.350000
7317 2 11.295123 44.978649 3.350000
7318 2 11.698208 44.264746 3.350000
7319 2 12.545269 47.096746 3.350000
7320 2 12.948353 46.382844 3.350000
7321 2 13.795414 49.214843 3.350000
7322 2 14.198499 48.500941 3.350000
7323 2 15.045560 51.332940 3.350000
7324 2 15.448644 50.619038 3.350000
7325 2 16.295706 53.451038 3.350000
7326 2 16.698790 52.737135 3.350000
7327 2 17.545851 55.569135 3.350000
7328 2 17.948936 54.855233 3.350000
7329 2 18.795997 57.687232 3.350000
7330 2 19.199081 56.973330 3.350000
7331 2 -46.252468 -56.713628 3.350000
7332 2 -45.849384 -57.427530 3.350000
7333 2 -45.002323 -54.595531 3.350000
7334 2 -44.599238 -55.309433 3.350000
7335 2 -43.752177 -52.477433 3.350000
7336 2 -43.349093 -53.191336 3.350000
7337 2 -42.502032 -50.359336 3.350000
7338 2 -42.098947 -51.073238 3.350000
7339 2 -41.251886 -48.241239 3.350000
7340 2 -40.848802 -48.955141 3.350000
7341 2 -40.001740 -46.123142 3.350000
7342 2 -39.598656 -46.837044 3.350000
7343 2 -38.751595 -44.005045 3.350000
7344 2 -38.348510 -44.718947 3.350000
7345 2 -37.501449 -41.886947 3.350000
7346 2 -37.098365 -42.600849 3.350000
7347 2 -36.251303 -39.768850 3.350000
7348 2 -35.848219 -40.482752 3.350000
7349 2 -35.001158 -37.650753 3.350000
7350 2 -34.598073 -38.364655 3.350000
7351 2 -33.751012 -35.532656 3.350000
7352 2 -33.347928 -36.246558 3.350000
7353 2 -32.500866 -33.414558 3.350000
7354 2 -32.097782 -34.128461 3.350000
7355 2 -31.250721 -31.296461 3.350000
7356 2 -30.847636 -32.010363 3.350000
7357 2 -30.000575 -29.178364 3.350000
7358 2 -29.597491 -29.892266 3.350000
7359 2 -28.750430 -27.060267 3.350000
7360 2 -28.347345 -27.774169 3.350000
7361 2 -27.500284 -24.942169 3.350000
7362 2 -27.097200 -25.656072 3.350000
7363 2 -26.250138 -22.824072 3.350000
7364 2 -25.847054 -23.537974 3.350000
7365 2 -24.999993 -20.705975 3.350000
7366 2 -24.596908 -21.419877 3.350000
7367 2 -23.749847 -18.587878 3.350000
7368 2 -23.346763 -19.301780 3.350000
7369 2 -22.499701 -16.469781 3.350000
7370 2 -22.096617 -17.183683 3.350000
7371 2 -21.249556 -14.351683 3.350000
7372 2 -20.846471 -15.065585 3.350000
7373 2 -19.999410 -12.233586 3.350000
7374 2 -19.596326 -12.947488 3.350000
7375 2 -18.749265 -10.115489 3.350000
7376 2 -18.346180 -10.829391 3.350000
7377 2 -17.499119 -7.997392 3.350000
7378 2 -17.096034 -8.711294 3.350000
7379 2 -16.248973 -5.879294 3.350000
7380 2 -15.845889 -6.593196 3.350000
7381 2 -14.998828 -3.761197 3.350000
7382 2 -14.595743 -4.475099 3.350000
7383 2 -13.748682 -1.643100 3.350000
7384 2 -13.345598 -2.357002 3.350000
7385 2 -12.498536 0.474997 3.350000
7386 2 -12.095452 -0.238905 3.350000
7387 2 -11.248391 2.593095 3.350000
7388 2 -10.845306 1.879192 3.350000
7389 2 -9.998245 4.711192 3.350000
7390 2 -9.595161 3.997290 3.350000
7391 2 -8.748099 6.829289 3.350000
7392 2 -8.345015 6.115387 3.350000
7393 2 -7.497954 8.947386 3.350000
7394 2 -7.094869 8.233484 3.350000
7395 2 -6.247808 11.065484 3.350000
7396 2 -5.844724 10.351581 3.350000
7397 2 -4.997663 13.183581 3.350000
7398 2 -4.594578 12.469679 3.350000
7399 2 -3.747517 15.301678 3.350000
7400 2 -3.344433 14.587776 3.350000
7401 2 -2.497371 17.419775 3.350000
7402 2 -2.094287 16.705873 3.350000
7403 2 -1.247226 19.537872 3.350000
7404 2 -0.844141 18.823970 3.350000
7405 2 0.002920 21.655970 3.350000
7406 2 0.406004 20.942068 3.350000
7407 2 1.253066 23.774067 3.350000
7408 2 1.656150 23.060165 3.350000
7409 2 2.503211 25.892164 3.350000
7410 2 2.906296 25.178262 3.350000
7411 2 3.753357 28.010261 3.350000
7412 2 4.156441 27.296359 3.350000
7413 2 5.003503 30.128359 3.350000
7414 2 5.406587 29.414457 3.350000
7415 2 6.253648 32.246456 3.350000
7416 2 6.656733 31.532554 3.350000
7417 2 7.503794 34.364553 3.350000
7418 2 7.906878 33.650651 3.350000
7419 2 8.753939 36.482650 3.350000
7420 2 9.157024 35.768748 3.350000
7421 2 10.004085 38.600748 3.350000
7422 2 10.407169 37.886845 3.350000
7423 2 11.254231 40.718845 3.350000
7424 2 11.657315 40.004943 3.350000
7425 2 12.504376 42.836942 3.350000
7426 2 12.907461 42.123040 3.350000
7427 2 13.754522 44.955039 3.350000
7428 2 14.157606 44.241137 3.350000
7429 2 15.004668 47.073137 3.350000
7430 2 15.407752 46.359234 3.350000
7431 2 16.254813 49.191234 3.350000
7432 2 16.657898 48.477332 3.350000
7433 2 17.504959 51.309331 3.350000
7434 2 17.908043 50.595429 3.350000
7435 2 18.755104 53.427428 3.350000
7436 2 19.158189 52.713526 3.350000
7437 2 20.005250 55.545525 3.350000
7438 2 20.408335 54.831623 3.350000
7439 2 21.255396 57.663623 3.350000
7440 2 21.658480 56.949721 3.350000
7441 2 -43.793070 -56.737237 3.350000
7442 2 -43.389985 -57.451139 3.350000
7443 2 -42.542924 -54.619140 3.350000
7444 2 -42.139840 -55.333042 3.350000
7445 2 -41.292778 -52.501043 3.350000
7446 2 -40.889694 -53.214945 3.350000
7447 2 -40.042633 -50.382946 3.350000
7448 2 -39.639548 -51.096848 3.350000
7449 2 -38.792487 -48.264848 3.350000
7450 2 -38.389403 -48.978750 3.350000
7451 2 -37.542341 -46.146751 3.350000
7452 2 -37.139257 -46.860653 3.350000
7453 2 -36.292196 -44.028654 3.350000
7454 2 -35.889111 -44.742556 3.350000
7455 2 -35.042050 -41.910557 3.350000
7456 2 -34.638966 -42.624459 3.350000
7457 2 -33.791905 -39.792459 3.350000
7458 2 -33.388820 -40.506362 3.350000
7459 2 -32.541759 -37.674362 3.350000
7460 2 -32.138675 -38.388264 3.350000
7461 2 -31.291613 -35.556265 3.350000
7462 2 -30.888529 -36.270167 3.350000
7463 2 -30.041468 -33.438168 3.350000
7464 2 -29.638383 -34.152070 3.350000
7465 2 -28.791322 -31.320070 3.350000
7466 2 -28.388238 -32.033973 3.350000
7467 2 -27.541176 -29.201973 3.350000
7468 2 -27.138092 -29.915875 3.350000
7469 2 -26.291031 -27.083876 3.350000
7470 2 -25.887946 -27.797778 3.350000
7471 2 -25.040885 -24.965779 3.350000
7472 2 -24.637801 -25.679681 3.350000
7473 2 -23.790739 -22.847681 3.350000
7474 2 -23.387655 -23.561584 3.350000
7475 2 -22.540594 -20.729584 3.350000
7476 2 -22.137509 -21.443486 3.350000
7477 2 -21.290448 -18.611487 3.350000
7478 2 -20.887364 -19.325389 3.350000
7479 2 -20.040303 -16.493390 3.350000
7480 2 -19.637218 -17.207292 3.350000
7481 2 -18.790157 -14.375293 3.350000
7482 2 -18.387073 -15.089195 3.350000
7483 2 -17.540011 -12.257195 3.350000
7484 2 -17.136927 -12.971097 3.350000
7485 2 -16.289866 -10.139098 3.350000
7486 2 -15.886781 -10.853000 3.350000
7487 2 -15.039720 -8.021001 3.350000
7488 2 -14.636636 -8.734903 3.350000
7489 2 -13.789574 -5.902904 3.350000
7490 2 -13.386490 -6.616806 3.350000
7491 2 -12.539429 -3.784806 3.350000
7492 2 -12.136344 -4.498709 3.350000
7493 2 -11.289283 -1.666709 3.350000
7494 2 -10.886199 -2.380611 3.350000
7495 2 -10.039138 0.451388 3.350000
7496 2 -9.636053 -0.262514 3.350000
7497 2 -8.788992 2.569485 3.350000
7498 2 -8.385907 1.855583 3.350000
7499 2 -7.538846 4.687583 3.350000
7500 2 -7.135762 3.973680 3.350000
7501 2 -6.288701 6.805680 3.350000
7502 2 -5.885616 6.091778 3.350000
7503 2 -5.038555 8.923777 3.350000
7504 2 -4.635471 8.209875 3.350000
7505 2 -3.788409 11.041874 3.350000
7506 2 -3.385325 10.327972 3.350000
7507 2 -2.538264 13.159972 3.350000
7508 2 -2.135179 12.446069 3.350000
7509 2 -1.288118 15.278069 3.350000
7510 2 -0.885034 14.564167 3.350000
7511 2 -0.037972 17.396166 3.350000
7512 2 0.365112 16.682264 3.350000
7513 2 1.212173 19.514263 3.350000
7514 2 1.615258 18.800361 3.350000
7515 2 2.462319 21.632360 3.350000
7516 2 2.865403 20.918458 3.350000
7517 2 3.712464 23.750458 3.350000
7518 2 4.115549 23.036556 3.350000
7519 2 4.962610 25.868555 3.350000
7520 2 5.365694 25.154653 3.350000
7521 2 6.212756 27.986652 3.350000
7522 2 6.615840 27.272750 3.350000
7523 2 7.462901 30.104749 3.350000
7524 2 7.865986 29.390847 3.350000
7525 2 8.713047 32.222847 3.350000
7526 2 9.116131 31.508944 3.350000
7527 2 9.963193 34.340944 3.350000
7528 2 10.366277 33.627042 3.350000
7529 2 11.213338 36.459041 3.350000
7530 2 11.616423 35.745139 3.350000
7531 2 12.463484 38.577138 3.350000
7532 2 12.866568 37.863236 3.350000
7533 2 13.713630 40.695236 3.350000
7534 2 14.116714 39.981333 3.350000
7535 2 14.963775 42.813333 3.350000
7536 2 15.366860 42.099431 3.350000
7537 2 16.213921 44.931430 3.350000
7538 2 16.617005 44.217528 3.350000
7539 2 17.464066 47.049527 3.350000
7540 2 17.867151 46.335625 3.350000
7541 2 18.714212 49.167625 3.350000
7542 2 19.117296 48.453722 3.350000
7543 2 19.964358 51.285722 3.350000
7544 2 20.367442 50.571820 3.350000
7545 2 21.214503 53.403819 3.350000
7546 2 21.617588 52.689917 3.350000
7547 2 22.464649 55.521916 3.350000
7548 2 22.867733 54.808014 3.350000
7549 2 23.714795 57.640013 3.350000
7550 2 24.117879 56.926111 3.350000
7551 2 -41.333671 -56.760846 3.350000
7552 2 -40.930586 -57.474749 3.350000
7553 2 -40.083525 -54.642749 3.350000
7554 2 -39.680441 -55.356651 3.350000
7555 2 -38.833380 -52.524652 3.350000
7556 2 -38.430295 -53.238554 3.350000
7557 2 -37.583234 -50.406555 3.350000
7558 2 -37.180149 -51.120457 3.350000
7559 2 -36.333088 -48.288458 3.350000
7560 2 -35.930004 -49.002360 3.350000
7561 2 -35.082943 -46.170360 3.350000
7562 2 -34.679858 -46.884262 3.350000
7563 2 -33.832797 -44.052263 3.350000
7564 2 -33.429713 -44.766165 3.350000
7565 2 -32.582651 -41.934166 3.350000
7566 2 -32.179567 -42.648068 3.350000
7567 2 -31.332506 -39.816069 3.350000
7568 2 -30.929421 -40.529971 3.350000
7569 2 -30.082360 -37.697971 3.350000
7570 2 -29.679276 -38.411874 3.350000
7571 2 -28.832214 -35.579874 3.350000
7572 2 -28.429130 -36.293776 3.350000
7573 2 -27.582069 -33.461777 3.350000
7574 2 -27.178984 -34.175679 3.350000
7575 2 -26.331923 -31.343680 3.350000
7576 2 -25.928839 -32.057582 3.350000
7577 2 -25.081778 -29.225582 3.350000
7578 2 -24.678693 -29.939485 3.350000
7579 2 -23.831632 -27.107485 3.350000
7580 2 -23.428548 -27.821387 3.350000
7581 2 -22.581486 -24.989388 3.350000
7582 2 -22.178402 -25.703290 3.350000
7583 2 -21.331341 -22.871291 3.350000
7584 2 -20.928256 -23.585193 3.350000
7585 2 -20.081195 -20.753193 3.350000
7586 2 -19.678111 -21.467096 3.350000
7587 2 -18.831049 -18.635096 3.350000
7588 2 -18.427965 -19.348998 3.350000
7589 2 -17.580904 -16.516999 3.350000
7590 2 -17.177819 -17.230901 3.350000
7591 2 -16.330758 -14.398902 3.350000
7592 2 -15.927674 -15.112804 3.350000
7593 2 -15.080612 -12.280805 3.350000
7594 2 -14.677528 -12.994707 3.350000
7595 2 -13.830467 -10.162707 3.350000
7596 2 -13.427382 -10.876609 3.350000
7597 2 -12.580321 -8.044610 3.350000
7598 2 -12.177237 -8.758512 3.350000
7599 2 -11.330176 -5.926513 3.350000
7600 2 -10.927091 -6.640415 3.350000
7601 2 -10.080030 -3.808416 3.350000
7602 2 -9.676946 -4.522318 3.350000
7603 2 -8.829884 -1.690318 3.350000
7604 2 -8.426800 -2.404221 3.350000
7605 2 -7.579739 0.427779 3.350000
7606 2 -7.176654 -0.286123 3.350000
7607 2 -6.329593 2.545876 3.350000
7608 2 -5.926509 1.831974 3.350000
7609 2 -5.079447 4.663973 3.350000
7610 2 -4.676363 3.950071 3.350000
7611 2 -3.829302 6.782071 3.350000
7612 2 -3.426217 6.068168 3.350000
7613 2 -2.579156 8.900168 3.350000
7614 2 -2.176072 8.186266 3.350000
7615 2 -1.329011 11.018265 3.350000
7616 2 -0.925926 10.304363 3.350000
7617 2 -0.078865 13.136362 3.350000
7618 2 0.324220 12.422460 3.350000
7619 2 1.171281 15.254460 3.350000
7620 2 1.574365 14.540557 3.350000
7621 2 2.421426 17.372557 3.350000
7622 2 2.824511 16.658655 3.350000
7623 2 3.671572 19.490654 3.350000
7624 2 4.074656 18.776752 3.350000
7625 2 4.921718 21.608751 3.350000
7626 2 5.324802 20.894849 3.350000
7627 2 6.171863 23.726848 3.350000
7628 2 6.574948 23.012946 3.350000
7629 2 7.422009 25.844946 3.350000
7630 2 7.825093 25.131044 3.350000
7631 2 8.672155 27.963043 3.350000
7632 2 9.075239 27.249141 3.350000
7633 2 9.922300 30.081140 3.350000
7634 2 10.325385 29.367238 3.350000
7635 2 11.172446 32.199237 3.350000
7636 2 11.575530 31.485335 3.350000
7637 2 12.422591 34.317335 3.350000
7638 2 12.825676 33.603432 3.350000
7639 2 13.672737 36.435432 3.350000
7640 2 14.075821 35.721530 3.350000
7641 2 14.922883 38.553529 3.350000
7642 2 15.325967 37.839627 3.350000
7643 2 16.173028 40.671626 3.350000
7644 2 16.576113 39.957724 3.350000
7645 2 17.423174 42.789724 3.350000
7646 2 17.826258 42.075821 3.350000
7647 2 18.673320 44.907821 3.350000
7648 2 19.076404 44.193919 3.350000
7649 2 19.923465 47.025918 3.350000
7650 2 20.326550 46.312016 3.350000
7651 2 21.173611 49.144015 3.350000
7652 2 21.576695 48.430113 3.350000
7653 2 22.423757 51.262112 3.350000
7654 2 22.826841 50.548210 3.350000
7655 2 23.673902 53.380210 3.350000
7656 2 24.076987 52.666308 3.350000
7657 2 24.924048 55.498307 3.350000
7658 2 25.327132 54.784405 3.350000
7659 2 26.174193 57.616404 3.350000
7660 2 26.577278 56.902502 3.350000
7661 2 -38.874272 -56.784456 3.350000
7662 2 -38.471188 -57.498358 3.350000
7663 2 -37.624126 -54.666359 3.350000
7664 2 -37.221042 -55.380261 3.350000
7665 2 -36.373981 -52.548261 3.350000
7666 2 -35.970896 -53.262163 3.350000
7667 2 -35.123835 -50.430164 3.350000
7668 2 -34.720751 -51.144066 3.350000
7669 2 -33.873689 -48.312067 3.350000
7670 2 -33.470605 -49.025969 3.350000
7671 2 -32.623544 -46.193970 3.350000
7672 2 -32.220459 -46.907872 3.350000
7673 2 -31.373398 -44.075872 3.350000
7674 2 -30.970314 -44.789774 3.350000
7675 2 -30.123253 -41.957775 3.350000
7676 2 -29.720168 -42.671677 3.350000
7677 2 -28.873107 -39.839678 3.350000
7678 2 -28.470022 -40.553580 3.350000
7679 2 -27.622961 -37.721581 3.350000
7680 2 -27.219877 -38.435483 3.350000
7681 2 -26.372816 -35.603483 3.350000
7682 2 -25.969731 -36.317386 3.350000
7683 2 -25.122670 -33.485386 3.350000
7684 2 -24.719586 -34.199288 3.350000
7685 2 -23.872524 -31.367289 3.350000
7686 2 -23.469440 -32.081191 3.350000
7687 2 -22.622379 -29.249192 3.350000
7688 2 -22.219294 -29.963094 3.350000
7689 2 -21.372233 -27.131094 3.350000
7690 2 -20.969149 -27.844997 3.350000
7691 2 -20.122087 -25.012997 3.350000
7692 2 -19.719003 -25.726899 3.350000
7693 2 -18.871942 -22.894900 3.350000
7694 2 -18.468857 -23.608802 3.350000
7695 2 -17.621796 -20.776803 3.350000
7696 2 -17.218712 -21.490705 3.350000
7697 2 -16.371651 -18.658706 3.350000
7698 2 -15.968566 -19.372608 3.350000
7699 2 -15.121505 -16.540608 3.350000
7700 2 -14.718421 -17.254510 3.350000
7701 2 -13.871359 -14.422511 3.350000
7702 2 -13.468275 -15.136413 3.350000
7703 2 -12.621214 -12.304414 3.350000
7704 2 -12.218129 -13.018316 3.350000
7705 2 -11.371068 -10.186317 3.350000
7706 2 -10.967984 -10.900219 3.350000
7707 2 -10.120922 -8.068219 3.350000
7708 2 -9.717838 -8.782122 3.350000
7709 2 -8.870777 -5.950122 3.350000
7710 2 -8.467692 -6.664024 3.350000
7711 2 -7.620631 -3.832025 3.350000
7712 2 -7.217547 -4.545927 3.350000
7713 2 -6.370485 -1.713928 3.350000
7714 2 -5.967401 -2.427830 3.350000
7715 2 -5.120340 0.404170 3.350000
7716 2 -4.717255 -0.309733 3.350000
7717 2 -3.870194 2.522267 3.350000
7718 2 -3.467110 1.808365 3.350000
7719 2 -2.620049 4.640364 3.350000
7720 2 -2.216964 3.926462 3.350000
7721 2 -1.369903 6.758461 3.350000
7722 2 -0.966819 6.044559 3.350000
7723 2 -0.119757 8.876559 3.350000
7724 2 0.283327 8.162656 3.350000
7725 2 1.130388 10.994656 3.350000
7726 2 1.533473 10.280754 3.350000
7727 2 2.380534 13.112753 3.350000
7728 2 2.783618 12.398851 3.350000
7729 2 3.630680 15.230850 3.350000
7730 2 4.033764 14.516948 3.350000
7731 2 4.880825 17.348947 3.350000
7732 2 5.283910 16.635045 3.350000
7733 2 6.130971 19.467045 3.350000
7734 2 6.534055 18.753143 3.350000
7735 2 7.381116 21.585142 3.350000
7736 2 7.784201 20.871240 3.350000
7737 2 8.631262 23.703239 3.350000
7738 2 9.034347 22.989337 3.350000
7739 2 9.881408 25.821336 3.350000
7740 2 10.284492 25.107434 3.350000
7741 2 11.131553 27.939434 3.350000
7742 2 11.534638 27.225531 3.350000
7743 2 12.381699 30.057531 3.350000
7744 2 12.784783 29.343629 3.350000
7745 2 13.631845 32.175628 3.350000
7746 2 14.034929 31.461726 3.350000
7747 2 14.881990 34.293725 3.350000
7748 2 15.285075 33.579823 3.350000
7749 2 16.132136 36.411823 3.350000
7750 2 16.535220 35.697920 3.350000
7751 2 17.382282 38.529920 3.350000
7752 2 17.785366 37.816018 3.350000
7753 2 18.632427 40.648017 3.350000
7754 2 19.035512 39.934115 3.350000
7755 2 19.882573 42.766114 3.350000
7756 2 20.285657 42.052212 3.350000
7757 2 21.132718 44.884212 3.350000
7758 2 21.535803 44.170309 3.350000
7759 2 22.382864 47.002309 3.350000
7760 2 22.785948 46.288407 3.350000
7761 2 23.633010 49.120406 3.350000
7762 2 24.036094 48.406504 3.350000
7763 2 24.883155 51.238503 3.350000
7764 2 25.286240 50.524601 3.350000
7765 2 26.133301 53.356600 3.350000
7766 2 26.536385 52.642698 3.350000
7767 2 27.383447 55.474698 3.350000
7768 2 27.786531 54.760796 3.350000
7769 2 28.633592 57.592795 3.350000
7770 2 29.036677 56.878893 3.350000
7771 2 -36.414873 -56.808065 3.350000
7772 2 -36.011789 -57.521967 3.350000
7773 2 -35.164727 -54.689968 3.350000
7774 2 -34.761643 -55.403870 3.350000
7775 2 -33.914582 -52.571871 3.350000
7776 2 -33.511497 -53.285773 3.350000
7777 2 -32.664436 -50.453773 3.350000
7778 2 -32.261352 -51.167675 3.350000
7779 2 -31.414291 -48.335676 3.350000
7780 2 -31.011206 -49.049578 3.350000
7781 2 -30.164145 -46.217579 3.350000
7782 2 -29.761061 -46.931481 3.350000
7783 2 -28.913999 -44.099482 3.350000
7784 2 -28.510915 -44.813384 3.350000
7785 2 -27.663854 -41.981384 3.350000
7786 2 -27.260769 -42.695287 3.350000
7787 2 -26.413708 -39.863287 3.350000
7788 2 -26.010624 -40.577189 3.350000
7789 2 -25.163562 -37.745190 3.350000
7790 2 -24.760478 -38.459092 3.350000
7791 2 -23.913417 -35.627093 3.350000
7792 2 -23.510332 -36.340995 3.350000
7793 2 -22.663271 -33.508995 3.350000
7794 2 -22.260187 -34.222898 3.350000
7795 2 -21.413126 -31.390898 3.350000
7796 2 -21.010041 -32.104800 3.350000
7797 2 -20.162980 -29.272801 3.350000
7798 2 -19.759895 -29.986703 3.350000
7799 2 -18.912834 -27.154704 3.350000
7800 2 -18.509750 -27.868606 3.350000
7801 2 -17.662689 -25.036606 3.350000
7802 2 -17.259604 -25.750509 3.350000
7803 2 -16.412543 -22.918509 3.350000
7804 2 -16.009459 -23.632411 3.350000
7805 2 -15.162397 -20.800412 3.350000
7806 2 -14.759313 -21.514314 3.350000
7807 2 -13.912252 -18.682315 3.350000
7808 2 -13.509167 -19.396217 3.350000
7809 2 -12.662106 -16.564218 3.350000
7810 2 -12.259022 -17.278120 3.350000
7811 2 -11.411960 -14.446120 3.350000
7812 2 -11.008876 -15.160022 3.350000
7813 2 -10.161815 -12.328023 3.350000
7814 2 -9.758730 -13.041925 3.350000
7815 2 -8.911669 -10.209926 3.350000
7816 2 -8.508585 -10.923828 3.350000
7817 2 -7.661524 -8.091829 3.350000
7818 2 -7.258439 -8.805731 3.350000
7819 2 -6.411378 -5.973731 3.350000
7820 2 -6.008294 -6.687634 3.350000
7821 2 -5.161232 -3.855634 3.350000
7822 2 -4.758148 -4.569536 3.350000
7823 2 -3.911087 -1.737537 3.350000
7824 2 -3.508002 -2.451439 3.350000
7825 2 -2.660941 0.380560 3.350000
7826 2 -2.257857 -0.333342 3.350000
7827 2 -1.410795 2.498658 3.350000
7828 2 -1.007711 1.784755 3.350000
7829 2 -0.160650 4.616755 3.350000
7830 2 0.242435 3.902853 3.350000
7831 2 1.089496 6.734852 3.350000
7832 2 1.492580 6.020950 3.350000
7833 2 2.339642 8.852949 3.350000
7834 2 2.742726 8.139047 3.350000
7835 2 3.589787 10.971047 3.350000
7836 2 3.992872 10.257144 3.350000
7837 2 4.839933 13.089144 3.350000
7838 2 5.243017 12.375242 3.350000
7839 2 6.090078 15.207241 3.350000
7840 2 6.493163 14.493339 3.350000
7841 2 7.340224 17.325338 3.350000
7842 2 7.743308 16.611436 3.350000
7843 2 8.590370 19.443435 3.350000
7844 2 8.993454 18.729533 3.350000
7845 2 9.840515 21.561533 3.350000
7846 2 10.243600 20.847631 3.350000
7847 2 11.090661 23.679630 3.350000
7848 2 11.493745 22.965728 3.350000
7849 2 12.340807 25.797727 3.350000
7850 2 12.743891 25.083825 3.350000
7851 2 13.590952 27.915824 3.350000
7852 2 13.994037 27.201922 3.350000
7853 2 14.841098 30.033922 3.350000
7854 2 15.244182 29.320019 3.350000
7855 2 16.091243 32.152019 3.350000
7856 2 16.494328 31.438117 3.350000
7857 2 17.341389 34.270116 3.350000
7858 2 17.744473 33.556214 3.350000
7859 2 18.591535 36.388213 3.350000
7860 2 18.994619 35.674311 3.350000
7861 2 19.841680 38.506311 3.350000
7862 2 20.244765 37.792408 3.350000
7863 2 21.091826 40.624408 3.350000
7864 2 21.494910 39.910506 3.350000
7865 2 22.341972 42.742505 3.350000
7866 2 22.745056 42.028603 3.350000
7867 2 23.592117 44.860602 3.350000
7868 2 23.995202 44.146700 3.350000
7869 2 24.842263 46.978700 3.350000
7870 2 25.245347 46.264797 3.350000
7871 2 26.092409 49.096797 3.350000
7872 2 26.495493 48.382895 3.350000
7873 2 27.342554 51.214894 3.350000
7874 2 27.745639 50.500992 3.350000
7875 2 28.592700 53.332991 3.350000
7876 2 28.995784 52.619089 3.350000
7877 2 29.842845 55.451088 3.350000
7878 2 30.245930 54.737186 3.350000
7879 2 31.092991 57.569186 3.350000
7880 2 31.496075 56.855284 3.350000
7881 2 -33.955474 -56.831674 3.350000
7882 2 -33.552390 -57.545576 3.350000
7883 2 -32.705329 -54.713577 3.350000
7884 2 -32.302244 -55.427479 3.350000
7885 2 -31.455183 -52.595480 3.350000
7886 2 -31.052099 -53.309382 3.350000
7887 2 -30.205037 -50.477383 3.350000
7888 2 -29.801953 -51.191285 3.350000
7889 2 -28.954892 -48.359285 3.350000
7890 2 -28.551807 -49.073187 3.350000
7891 2 -27.704746 -46.241188 3.350000
7892 2 -27.301662 -46.955090 3.350000
7893 2 -26.454600 -44.123091 3.350000
7894 2 -26.051516 -44.836993 3.350000
7895 2 -25.204455 -42.004994 3.350000
7896 2 -24.801370 -42.718896 3.350000
7897 2 -23.954309 -39.886896 3.350000
7898 2 -23.551225 -40.600799 3.350000
7899 2 -22.704164 -37.768799 3.350000
7900 2 -22.301079 -38.482701 3.350000
7901 2 -21.454018 -35.650702 3.350000
7902 2 -21.050934 -36.364604 3.350000
7903 2 -20.203872 -33.532605 3.350000
7904 2 -19.800788 -34.246507 3.350000
7905 2 -18.953727 -31.414507 3.350000
7906 2 -18.550642 -32.128410 3.350000
7907 2 -17.703581 -29.296410 3.350000
7908 2 -17.300497 -30.010312 3.350000
7909 2 -16.453435 -27.178313 3.350000
7910 2 -16.050351 -27.892215 3.350000
7911 2 -15.203290 -25.060216 3.350000
7912 2 -14.800205 -25.774118 3.350000
7913 2 -13.953144 -22.942119 3.350000
7914 2 -13.550060 -23.656021 3.350000
7915 2 -12.702999 -20.824021 3.350000
7916 2 -12.299914 -21.537923 3.350000
7917 2 -11.452853 -18.705924 3.350000
7918 2 -11.049768 -19.419826 3.350000
7919 2 -10.202707 -16.587827 3.350000
7920 2 -9.799623 -17.301729 3.350000
7921 2 -8.952562 -14.469730 3.350000
7922 2 -8.549477 -15.183632 3.350000
7923 2 -7.702416 -12.351632 3.350000
7924 2 -7.299332 -13.065534 3.350000
7925 2 -6.452270 -10.233535 3.350000
7926 2 -6.049186 -10.947437 3.350000
7927 2 -5.202125 -8.115438 3.350000
7928 2 -4.799040 -8.829340 3.350000
7929 2 -3.951979 -5.997341 3.350000
7930 2 -3.548895 -6.711243 3.350000
7931 2 -2.701833 -3.879243 3.350000
7932 2 -2.298749 -4.593146 3.350000
7933 2 -1.451688 -1.761146 3.350000
7934 2 -1.048603 -2.475048 3.350000
7935 2 -0.201542 0.356951 3.350000
7936 2 0.201542 -0.356951 3.350000
7937 2 1.048603 2.475048 3.350000
7938 2 1.451688 1.761146 3.350000
7939 2 2.298749 4.593146 3.350000
7940 2 2.701833 3.879243 3.350000
7941 2 3.548895 6.711243 3.350000
7942 2 3.951979 5.997341 3.350000
7943 2 4.799040 8.829340 3.350000
7944 2 5.202125 8.115438 3.350000
7945 2 6.049186 10.947437 3.350000
7946 2 6.452270 10.233535 3.350000
7947 2 7.299332 13.065534 3.350000
7948 2 7.702416 12.351632 3.350000
7949 2 8.549477 15.183632 3.350000
7950 2 8.952562 14.469730 3.350000
7951 2 9.799623 17.301729 3.350000
7952 2 10.202707 16.587827 3.350000
7953 2 11.049768 19.419826 3.350000
7954 2 11.452853 18.705924 3.350000
7955 2 12.299914 21.537923 3.350000
7956 2 12.702999 20.824021 3.350000
7957 2 13.550060 23.656021 3.350000
7958 2 13.953144 22.942119 3.350000
7959 2 14.800205 25.774118 3.350000
7960 2 15.203290 25.060216 3.350000
7961 2 16.050351 27.892215 3.350000
7962 2 16.453435 27.178313 3.350000
7963 2 17.300497 30.010312 3.350000
7964 2 17.703581 29.296410 3.350000
7965 2 18.550642 32.128410 3.350000
7966 2 18.953727 31.414507 3.350000
7967 2 19.800788 34.246507 3.350000
7968 2 20.203872 33.532605 3.350000
7969 2 21.050934 36.364604 3.350000
7970 2 21.454018 35.650702 3.350000
7971 2 22.301079 38.482701 3.350000
7972 2 22.704164 37.768799 3.350000
7973 2 23.551225 40.600799 3.350000
7974 2 23.954309 39.886896 3.350000
7975 2 24.801370 42.718896 3.350000
7976 2 25.204455 42.004994 3.350000
7977 2 26.051516 44.836993 3.350000
7978 2 26.454600 44.123091 3.350000
7979 2 27.301662 46.955090 3.350000
7980 2 27.704746 46.241188 3.350000
7981 2 28.551807 49.073187 3.350000
7982 2 28.954892 48.359285 3.350000
7983 2 29.801953 51.191285 3.350000
7984 2 30.205037 50.477383 3.350000
7985 2 31.052099 53.309382 3.350000
7986 2 31.455183 52.595480 3.350000
7987 2 32.302244 55.427479 3.350000
7988 2 32.705329 54.713577 3.350000
7989 2 33.552390 57.545576 3.350000
7990 2 33.955474 56.831674 3.350000
7991 2 -31.496075 -56.855284 3.350000
7992 2 -31.092991 -57.569186 3.350000
7993 2 -30.245930 -54.737186 3.350000
7994 2 -29.842845 -55.451088 3.350000
7995 2 -28.995784 -52.619089 3.350000
7996 2 -28.592700 -53.332991 3.350000
7997 2 -27.745639 -50.500992 3.350000
7998 2 -27.342554 -51.214894 3.350000
7999 2 -26.495493 -48.382895 3.350000
8000 2 -26.092409 -49.096797 3.350000
8001 2 -25.245347 -46.264797 3.350000
8002 2 -24.842263 -46.978700 3.350000
8003 2 -23.995202 -44.146700 3.350000
8004 2 -23.592117 -44.860602 3.350000
8005 2 -22.745056 -42.028603 3.350000
8006 2 -22.341972 -42.742505 3.350000
8007 2 -21.494910 -39.910506 3.350000
8008 2 -21.091826 -40.624408 3.350000
8009 2 -20.244765 -37.792408 3.350000
8010 2 -19.841680 -38.506311 3.350000
8011 2 -18.994619 -35.674311 3.350000
8012 2 -18.591535 -36.388213 3.350000
8013 2 -17.744473 -33.556214 3.350000
8014 2 -17.341389 -34.270116 3.350000
8015 2 -16.494328 -31.438117 3.350000
8016 2 -16.091243 -32.152019 3.350000
8017 2 -15.244182 -29.320019 3.350000
8018 2 -14.841098 -30.033922 3.350000
8019 2 -13.994037 -27.201922 3.350000
8020 2 -13.590952 -27.915824 3.350000
8021 2 -12.743891 -25.083825 3.350000
8022 2 -12.340807 -25.797727 3.350000
8023 2 -11.493745 -22.965728 3.350000
8024 2 -11.090661 -23.679630 3.350000
8025 2 -10.243600 -20.847631 3.350000
8026 2 -9.840515 -21.561533 3.350000
8027 2 -8.993454 -18.729533 3.350000
8028 2 -8.590370 -19.443435 3.350000
8029 2 -7.743308 -16.611436 3.350000
8030 2 -7.340224 -17.325338 3.350000
8031 2 -6.493163 -14.493339 3.350000
8032 2 -6.090078 -15.207241 3.350000
8033 2 -5.243017 -12.375242 3.350000
8034 2 -4.839933 -13.089144 3.350000
8035 2 -3.992872 -10.257144 3.350000
8036 2 -3.589787 -10.971047 3.350000
8037 2 -2.742726 -8.139047 3.350000
8038 2 -2.339642 -8.852949 3.350000
8039 2 -1.492580 -6.020950 3.350000
8040 2 -1.089496 -6.734852 3.350000
8041 2 -0.242435 -3.902853 3.350000
8042 2 0.160650 -4.616755 3.350000
8043 2 1.007711 -1.784755 3.350000
8044 2 1.410795 -2.498658 3.350000
8045 2 2.257857 0.333342 3.350000
8046 2 2.660941 -0.380560 3.350000
8047 2 3.508002 2.451439 3.350000
8048 2 3.911087 1.737537 3.350000
8049 2 4.758148 4.569536 3.350000
8050 2 5.161232 3.855634 3.350000
8051 2 6.008294 6.687634 3.350000
8052 2 6.411378 5.973731 3.350000
8053 2 7.258439 8.805731 3.350000
8054 2 7.661524 8.091829 3.350000
8055 2 8.508585 10.923828 3.350000
8056 2 8.911669 10.209926 3.350000
8057 2 9.758730 13.041925 3.350000
8058 2 10.161815 12.328023 3.350000
8059 2 11.008876 15.160022 3.350000
8060 2 11.411960 14.446120 3.350000
8061 2 12.259022 17.278120 3.350000
8062 2 12.662106 16.564218 3.350000
8063 2 13.509167 19.396217 3.350000
8064 2 13.912252 18.682315 3.350000
8065 2 14.759313 21.514314 3.350000
8066 2 15.162397 20.800412 3.350000
8067 2 16.009459 23.632411 3.350000
8068 2 16.412543 22.918509 3.350000
8069 2 17.259604 25.750509 3.350000
8070 2 17.662689 25.036606 3.350000
8071 2 18.509750 27.868606 3.350000
8072 2 18.912834 27.154704 3.350000
8073 2 19.759895 29.986703 3.350000
8074 2 20.162980 29.272801 3.350000
8075 2 21.010041 32.104800 3.350000
8076 2 21.413126 31.390898 3.350000
8077 2 22.260187 34.222898 3.350000
8078 2 22.663271 33.508995 3.350000
8079 2 23.510332 36.340995 3.350000
8080 2 23.913417 35.627093 3.350000
8081 2 24.760478 38.459092 3.350000
8082 2 25.163562 37.745190 3.350000
8083 2 26.010624 40.577189 3.350000
8084 2 26.413708 39.863287 3.350000
8085 2 27.260769 42.695287 3.350000
8086 2 27.663854 41.981384 3.350000
8087 2 28.510915 44.813384 3.350000
8088 2 28.913999 44.099482 3.350000
8089 2 29.761061 46.931481 3.350000
8090 2 30.164145 46.217579 3.350000
8091 2 31.011206 49.049578 3.350000
8092 2 31.414291 48.335676 3.350000
8093 2 32.261352 51.167675 3.350000
8094 2 32.664436 50.453773 3.350000
8095 2 33.511497 53.285773 3.350000
8096 2 33.914582 52.571871 3.350000
8097 2 34.761643 55.403870 3.350000
8098 2 35.164727 54.689968 3.350000
8099 2 36.011789 57.521967 3.350000
8100 2 36.414873 56.808065 3.350000
8101 2 -29.036677 -56.878893 3.350000
8102 2 -28.633592 -57.592795 3.350000
8103 2 -27.786531 -54.760796 3.350000
8104 2 -27.383447 -55.474698 3.350000
8105 2 -26.536385 -52.642698 3.350000
8106 2 -26.133301 -53.356600 3.350000
8107 2 -25.286240 -50.524601 3.350000
8108 2 -24.883155 -51.238503 3.350000
8109 2 -24.036094 -48.406504 3.350000
8110 2 -23.633010 -49.120406 3.350000
8111 2 -22.785948 -46.288407 3.350000
8112 2 -22.382864 -47.002309 3.350000
8113 2 -21.535803 -44.170309 3.350000
8114 2 -21.132718 -44.884212 3.350000
8115 2 -20.285657 -42.052212 3.350000
8116 2 -19.882573 -42.766114 3.350000
8117 2 -19.035512 -39.934115 3.350000
8118 2 -18.632427 -40.648017 3.350000
8119 2 -17.785366 -37.816018 3.350000
8120 2 -17.382282 -38.529920 3.350000
8121 2 -16.535220 -35.697920 3.350000
8122 2 -16.132136 -36.411823 3.350000
8123 2 -15.285075 -33.579823 3.350000
8124 2 -14.881990 -34.293725 3.350000
8125 2 -14.034929 -31.461726 3.350000
8126 2 -13.631845 -32.175628 3.350000
8127 2 -12.784783 -29.343629 3.350000
8128 2 -12.381699 -30.057531 3.350000
8129 2 -11.534638 -27.225531 3.350000
8130 2 -11.131553 -27.939434 3.350000
8131 2 -10.284492 -25.107434 3.350000
8132 2 -9.881408 -25.821336 3.350000
8133 2 -9.034347 -22.989337 3.350000
8134 2 -8.631262 -23.703239 3.350000
8135 2 -7.784201 -20.871240 3.350000
8136 2 -7.381116 -21.585142 3.350000
8137 2 -6.534055 -18.753143 3.350000
8138 2 -6.130971 -19.467045 3.350000
8139 2 -5.283910 -16.635045 3.350000
8140 2 -4.880825 -17.348947 3.350000
8141 2 -4.033764 -14.516948 3.350000
8142 2 -3.630680 -15.230850 3.350000
8143 2 -2.783618 -12.398851 3.350000
8144 2 -2.380534 -13.112753 3.350000
8145 2 -1.533473 -10.280754 3.350000
8146 2 -1.130388 -10.994656 3.350000
8147 2 -0.283327 -8.162656 3.350000
8148 2 0.119757 -8.876559 3.350000
8149 2 0.966819 -6.044559 3.350000
8150 2 1.369903 -6.758461 3.350000
8151 2 2.216964 -3.926462 3.350000
8152 2 2.620049 -4.640364 3.350000
8153 2 3.467110 -1.808365 3.350000
8154 2 3.870194 -2.522267 3.350000
8155 2 4.717255 0.309733 3.350000
8156 2 5.120340 -0.404170 3.350000
8157 2 5.967401 2.427830 3.350000
8158 2 6.370485 1.713928 3.350000
8159 2 7.217547 4.545927 3.350000
8160 2 7.620631 3.832025 3.350000
8161 2 8.467692 6.664024 3.350000
8162 2 8.870777 5.950122 3.350000
8163 2 9.717838 8.782122 3.350000
8164 2 10.120922 8.068219 3.350000
8165 2 10.967984 10.900219 3.350000
8166 2 11.371068 10.186317 3.350000
8167 2 12.218129 13.018316 3.350000
8168 2 12.621214 12.304414 3.350000
8169 2 13.468275 15.136413 3.350000
8170 2 13.871359 14.422511 3.350000
8171 2 14.718421 17.254510 3.350000
8172 2 15.121505 16.540608 3.350000
8173 2 15.968566 19.372608 3.350000
8174 2 16.371651 18.658706 3.350000
8175 2 17.218712 21.490705 3.350000
8176 2 17.621796 20.776803 3.350000
8177 2 18.468857 23.608802 3.350000
8178 2 18.871942 22.894900 3.350000
8179 2 19.719003 25.726899 3.350000
8180 2 20.122087 25.012997 3.350000
8181 2 20.969149 27.844997 3.350000
8182 2 21.372233 27.131094 3.350000
8183 2 22.219294 29.963094 3.350000
8184 2 22.622379 29.249192 3.350000
8185 2 23.469440 32.081191 3.350000
8186 2 23.872524 31.367289 3.350000
8187 2 24.719586 34.199288 3.350000
8188 2 25.122670 33.485386 3.350000
8189 2 25.969731 36.317386 3.350000
8190 2 26.372816 35.603483 3.350000
8191 2 27.219877 38.435483 3.350000
8192 2 27.622961 37.721581 3.350000
8193 2 28.470022 40.553580 3.350000
8194 2 28.873107 39.839678 3.350000
8195 2 29.720168 42.671677 3.350000
8196 2 30.123253 41.957775 3.350000
8197 2 30.970314 44.789774 3.350000
8198 2 31.373398 44.075872 3.350000
8199 2 32.220459 46.907872 3.350000
8200 2 32.623544 46.193970 3.350000
8201 2 33.470605 49.025969 3.350000
8202 2 33.873689 48.312067 3.350000
8203 2 34.720751 51.144066 3.350000
8204 2 35.123835 50.430164 3.350000
8205 2 35.970896 53.262163 3.350000
8206 2 36.373981 52.548261 3.350000
8207 2 37.221042 55.380261 3.350000
8208 2 37.624126 54.666359 3.350000
8209 2 38.471188 57.498358 3.350000
8210 2 38.874272 56.784456 3.350000
8211 2 -26.577278 -56.902502 3.350000
8212 2 -26.174193 -57.616404 3.350000
8213 2 -25.327132 -54.784405 3.350000
8214 2 -24.924048 -55.498307 3.350000
8215 2 -24.076987 -52.666308 3.350000
8216 2 -23.673902 -53.380210 3.350000
8217 2 -22.826841 -50.548210 3.350000
8218 2 -22.423757 -51.262112 3.350000
8219 2 -21.576695 -48.430113 3.350000
8220 2 -21.173611 -49.144015 3.350000
8221 2 -20.326550 -46.312016 3.350000
8222 2 -19.923465 -47.025918 3.350000
8223 2 -19.076404 -44.193919 3.350000
8224 2 -18.673320 -44.907821 3.350000
8225 2 -17.826258 -42.075821 3.350000
8226 2 -17.423174 -42.789724 3.350000
8227 2 -16.576113 -39.957724 3.350000
8228 2 -16.173028 -40.671626 3.350000
8229 2 -15.325967 -37.839627 3.350000
8230 2 -14.922883 -38.553529 3.350000
8231 2 -14.075821 -35.721530 3.350000
8232 2 -13.672737 -36.435432 3.350000
8233 2 -12.825676 -33.603432 3.350000
8234 2 -12.422591 -34.317335 3.350000
8235 2 -11.575530 -31.485335 3.350000
8236 2 -11.172446 -32.199237 3.350000
8237 2 -10.325385 -29.367238 3.350000
8238 2 -9.922300 -30.081140 3.350000
8239 2 -9.075239 -27.249141 3.350000
8240 2 -8.672155 -27.963043 3.350000
8241 2 -7.825093 -25.131044 3.350000
8242 2 -7.422009 -25.844946 3.350000
8243 2 -6.574948 -23.012946 3.350000
8244 2 -6.171863 -23.726848 3.350000
8245 2 -5.324802 -20.894849 3.350000
8246 2 -4.921718 -21.608751 3.350000
8247 2 -4.074656 -18.776752 3.350000
8248 2 -3.671572 -19.490654 3.350000
8249 2 -2.824511 -16.658655 3.350000
8250 2 -2.421426 -17.372557 3.350000
8251 2 -1.574365 -14.540557 3.350000
8252 2 -1.171281 -15.254460 3.350000
8253 2 -0.324220 -12.422460 3.350000
8254 2 0.078865 -13.136362 3.350000
8255 2 0.925926 -10.304363 3.350000
8256 2 1.329011 -11.018265 3.350000
8257 2 2.176072 -8.186266 3.350000
8258 2 2.579156 -8.900168 3.350000
8259 2 3.426217 -6.068168 3.350000
8260 2 3.829302 -6.782071 3.350000
8261 2 4.676363 -3.950071 3.350000
8262 2 5.079447 -4.663973 3.350000
8263 2 5.926509 -1.831974 3.350000
8264 2 6.329593 -2.545876 3.350000
8265 2 7.176654 0.286123 3.350000
8266 2 7.579739 -0.427779 3.350000
8267 2 8.426800 2.404221 3.350000
8268 2 8.829884 1.690318 3.350000
8269 2 9.676946 4.522318 3.350000
8270 2 10.080030 3.808416 3.350000
8271 2 10.927091 6.640415 3.350000
8272 2 11.330176 5.926513 3.350000
8273 2 12.177237 8.758512 3.350000
8274 2 12.580321 8.044610 3.350000
8275 2 13.427382 10.876609 3.350000
8276 2 13.830467 10.162707 3.350000
8277 2 14.677528 12.994707 3.350000
8278 2 15.080612 12.280805 3.350000
8279 2 15.927674 15.112804 3.350000
8280 2 16.330758 14.398902 3.350000
8281 2 17.177819 17.230901 3.350000
8282 2 17.580904 16.516999 3.350000
8283 2 18.427965 19.348998 3.350000
8284 2 18.831049 18.635096 3.350000
8285 2 19.678111 21.467096 3.350000
8286 2 20.081195 20.753193 3.350000
8287 2 20.928256 23.585193 3.350000
8288 2 21.331341 22.871291 3.350000
8289 2 22.178402 25.703290 3.350000
8290 2 22.581486 24.989388 3.350000
8291 2 23.428548 27.821387 3.350000
8292 2 23.831632 27.107485 3.350000
8293 2 24.678693 29.939485 3.350000
8294 2 25.081778 29.225582 3.350000
8295 2 25.928839 32.057582 3.350000
8296 2 26.331923 31.343680 3.350000
8297 2 27.178984 34.175679 3.350000
8298 2 27.582069 33.461777 3.350000
8299 2 28.429130 36.293776 3.350000
8300 2 28.832214 35.579874 3.350000
8301 2 29.679276 38.411874 3.350000
8302 2 30.082360 37.697971 3.350000
8303 2 30.929421 40.529971 3.350000
8304 2 31.332506 39.816069 3.350000
8305 2 32.179567 42.648068 3.350000
8306 2 32.582651 41.934166 3.350000
8307 2 33.429713 44.766165 3.350000
8308 2 33.832797 44.052263 3.350000
8309 2 34.679858 46.884262 3.350000
8310 2 35.082943 46.170360 3.350000
8311 2 35.930004 49.002360 3.350000
8312 2 36.333088 48.288458 3.350000
8313 2 37.180149 51.120457 3.350000
8314 2 37.583234 50.406555 3.350000
8315 2 38.430295 53.238554 3.350000
8316 2 38.833380 52.524652 3.350000
8317 2 39.680441 55.356651 3.350000
8318 2 40.083525 54.642749 3.350000
8319 2 40.930586 57.474749 3.350000
8320 2 41.333671 56.760846 3.350000
8321 2 -24.117879 -56.926111 3.350000
8322 2 -23.714795 -57.640013 3.350000
8323 2 -22.867733 -54.808014 3.350000
8324 2 -22.464649 -55.521916 3.350000
8325 2 -21.617588 -52.689917 3.350000
8326 2 -21.214503 -53.403819 3.350000
8327 2 -20.367442 -50.571820 3.350000
8328 2 -19.964358 -51.285722 3.350000
8329 2 -19.117296 -48.453722 3.350000
8330 2 -18.714212 -49.167625 3.350000
8331 2 -17.867151 -46.335625 3.350000
8332 2 -17.464066 -47.049527 3.350000
8333 2 -16.617005 -44.217528 3.350000
8334 2 -16.213921 -44.931430 3.350000
8335 2 -15.366860 -42.099431 3.350000
8336 2 -14.963775 -42.813333 3.350000
8337 2 -14.116714 -39.981333 3.350000
8338 2 -13.713630 -40.695236 3.350000
8339 2 -12.866568 -37.863236 3.350000
8340 2 -12.463484 -38.577138 3.350000
8341 2 -11.616423 -35.745139 3.350000
8342 2 -11.213338 -36.459041 3.350000
8343 2 -10.366277 -33.627042 3.350000
8344 2 -9.963193 -34.340944 3.350000
8345 2 -9.116131 -31.508944 3.350000
8346 2 -8.713047 -32.222847 3.350000
8347 2 -7.865986 -29.390847 3.350000
8348 2 -7.462901 -30.104749 3.350000
8349 2 -6.615840 -27.272750 3.350000
8350 2 -6.212756 -27.986652 3.350000
8351 2 -5.365694 -25.154653 3.350000
8352 2 -4.962610 -25.868555 3.350000
8353 2 -4.115549 -23.036556 3.350000
8354 2 -3.712464 -23.750458 3.350000
8355 2 -2.865403 -20.918458 3.350000
8356 2 -2.462319 -21.632360 3.350000
8357 2 -1.615258 -18.800361 3.350000
8358 2 -1.212173 -19.514263 3.350000
8359 2 -0.365112 -16.682264 3.350000
8360 2 0.037972 -17.396166 3.350000
8361 2 0.885034 -14.564167 3.350000
8362 2 1.288118 -15.278069 3.350000
8363 2 2.135179 -12.446069 3.350000
8364 2 2.538264 -13.159972 3.350000
8365 2 3.385325 -10.327972 3.350000
8366 2 3.788409 -11.041874 3.350000
8367 2 4.635471 -8.209875 3.350000
8368 2 5.038555 -8.923777 3.350000
8369 2 5.885616 -6.091778 3.350000
8370 2 6.288701 -6.805680 3.350000
8371 2 7.135762 -3.973680 3.350000
8372 2 7.538846 -4.687583 3.350000
8373 2 8.385907 -1.855583 3.350000
8374 2 8.788992 -2.569485 3.350000
8375 2 9.636053 0.262514 3.350000
8376 2 10.039138 -0.451388 3.350000
8377 2 10.886199 2.380611 3.350000
8378 2 11.289283 1.666709 3.350000
8379 2 12.136344 4.498709 3.350000
8380 2 12.539429 3.784806 3.350000
8381 2 13.386490 6.616806 3.350000
8382 2 13.789574 5.902904 3.350000
8383 2 14.636636 8.734903 3.350000
8384 2 15.039720 8.021001 3.350000
8385 2 15.886781 10.853000 3.350000
8386 2 16.289866 10.139098 3.350000
8387 2 17.136927 12.971097 3.350000
8388 2 17.540011 12.257195 3.350000
8389 2 18.387073 15.089195 3.350000
8390 2 18.790157 14.375293 3.350000
8391 2 19.637218 17.207292 3.350000
8392 2 20.040303 16.493390 3.350000
8393 2 20.887364 19.325389 3.350000
8394 2 21.290448 18.611487 3.350000
8395 2 22.137509 21.443486 3.350000
8396 2 22.540594 20.729584 3.350000
8397 2 23.387655 23.561584 3.350000
8398 2 23.790739 22.847681 3.350000
8399 2 24.637801 25.679681 3.350000
8400 2 25.040885 24.965779 3.350000
8401 2 25.887946 27.797778 3.350000
8402 2 26.291031 27.083876 3.350000
8403 2 27.138092 29.915875 3.350000
8404 2 27.541176 29.201973 3.350000
8405 2 28.388238 32.033973 3.350000
8406 2 28.791322 31.320070 3.350000
8407 2 29.638383 34.152070 3.350000
8408 2 30.041468 33.438168 3.350000
8409 2 30.888529 36.270167 3.350000
8410 2 31.291613 35.556265 3.350000
8411 2 32.138675 38.388264 3.350000
8412 2 32.541759 37.674362 3.350000
8413 2 33.388820 40.506362 3.350000
8414 2 33.791905 39.792459 3.350000
8415 2 34.638966 42.624459 3.350000
8416 2 35.042050 41.910557 3.350000
8417 2 35.889111 44.742556 3.350000
8418 2 36.292196 44.028654 3.350000
8419 2 37.139257 46.860653 3.350000
8420 2 37.542341 46.146751 3.350000
8421 2 38.389403 48.978750 3.350000
8422 2 38.792487 48.264848 3.350000
8423 2 39.639548 51.096848 3.350000
8424 2 40.042633 50.382946 3.350000
8425 2 40.889694 53.214945 3.350000
8426 2 41.292778 52.501043 3.350000
8427 2 42.139840 55.333042 3.350000
8428 2 42.542924 54.619140 3.350000
8429 2 43.389985 57.451139 3.350000
8430 2 43.793070 56.737237 3.350000
8431 2 -21.658480 -56.949721 3.350000
8432 2 -21.255396 -57.663623 3.350000
8433 2 -20.408335 -54.831623 3.350000
8434 2 -20.005250 -55.545525 3.350000
8435 2 -19.158189 -52.713526 3.350000
8436 2 -18.755104 -53.427428 3.350000
8437 2 -17.908043 -50.595429 3.350000
8438 2 -17.504959 -51.309331 3.350000
8439 2 -16.657898 -48.477332 3.350000
8440 2 -16.254813 -49.191234 3.350000
8441 2 -15.407752 -46.359234 3.350000
8442 2 -15.004668 -47.073137 3.350000
8443 2 -14.157606 -44.241137 3.350000
8444 2 -13.754522 -44.955039 3.350000
8445 2 -12.907461 -42.123040 3.350000
8446 2 -12.504376 -42.836942 3.350000
8447 2 -11.657315 -40.004943 3.350000
8448 2 -11.254231 -40.718845 3.350000
8449 2 -10.407169 -37.886845 3.350000
8450 2 -10.004085 -38.600748 3.350000
8451 2 -9.157024 -35.768748 3.350000
8452 2 -8.753939 -36.482650 3.350000
8453 2 -7.906878 -33.650651 3.350000
8454 2 -7.503794 -34.364553 3.350000
8455 2 -6.656733 -31.532554 3.350000
8456 2 -6.253648 -32.246456 3.350000
8457 2 -5.406587 -29.414457 3.350000
8458 2 -5.003503 -30.128359 3.350000
8459 2 -4.156441 -27.296359 3.350000
8460 2 -3.753357 -28.010261 3.350000
8461 2 -2.906296 -25.178262 3.350000
8462 2 -2.503211 -25.892164 3.350000
8463 2 -1.656150 -23.060165 3.350000
8464 2 -1.253066 -23.774067 3.350000
8465 2 -0.406004 -20.942068 3.350000
8466 2 -0.002920 -21.655970 3.350000
8467 2 0.844141 -18.823970 3.350000
8468 2 1.247226 -19.537872 3.350000
8469 2 2.094287 -16.705873 3.350000
8470 2 2.497371 -17.419775 3.350000
8471 2 3.344433 -14.587776 3.350000
8472 2 3.747517 -15.301678 3.350000
8473 2 4.594578 -12.469679 3.350000
8474 2 4.997663 -13.183581 3.350000
8475 2 5.844724 -10.351581 3.350000
8476 2 6.247808 -11.065484 3.350000
8477 2 7.094869 -8.233484 3.350000
8478 2 7.497954 -8.947386 3.350000
8479 2 8.345015 -6.115387 3.350000
8480 2 8.748099 -6.829289 3.350000
8481 2 9.595161 -3.997290 3.350000
8482 2 9.998245 -4.711192 3.350000
8483 2 10.845306 -1.879192 3.350000
8484 2 11.248391 -2.593095 3.350000
8485 2 12.095452 0.238905 3.350000
8486 2 12.498536 -0.474997 3.350000
8487 2 13.345598 2.357002 3.350000
8488 2 13.748682 1.643100 3.350000
8489 2 14.595743 4.475099 3.350000
8490 2 14.998828 3.761197 3.350000
8491 2 15.845889 6.593196 3.350000
8492 2 16.248973 5.879294 3.350000
8493 2 17.096034 8.711294 3.350000
8494 2 17.499119 7.997392 3.350000
8495 2 18.346180 10.829391 3.350000
8496 2 18.749265 10.115489 3.350000
8497 2 19.596326 12.947488 3.350000
8498 2 19.999410 12.233586 3.350000
8499 2 20.846471 15.065585 3.350000
8500 2 21.249556 14.351683 3.350000
8501 2 22.096617 17.183683 3.350000
8502 2 22.499701 16.469781 3.350000
8503 2 23.346763 19.301780 3.350000
8504 2 23.749847 18.587878 3.350000
8505 2 24.596908 21.419877 3.350000
8506 2 24.999993 20.705975 3.350000
8507 2 25.847054 23.537974 3.350000
8508 2 26.250138 22.824072 3.350000
8509 2 27.097200 25.656072 3.350000
8510 2 27.500284 24.942169 3.350000
8511 2 28.347345 27.774169 3.350000
8512 2 28.750430 27.060267 3.350000
8513 2 29.597491 29.892266 3.350000
8514 2 30.000575 29.178364 3.350000
8515 2 30.847636 32.010363 3.350000
8516 2 31.250721 31.296461 3.350000
8517 2 32.097782 34.128461 3.350000
8518 2 32.500866 33.414558 3.350000
8519 2 33.347928 36.246558 3.350000
8520 2 33.751012 35.532656 3.350000
8521 2 34.598073 38.364655 3.350000
8522 2 35.001158 37.650753 3.350000
8523 2 35.848219 40.482752 3.350000
8524 2 36.251303 39.768850 3.350000
8525 2 37.098365 42.600849 3.350000
8526 2 37.501449 41.886947 3.350000
8527 2 38.348510 44.718947 3.350000
8528 2 38.751595 44.005045 3.350000
8529 2 39.598656 46.837044 3.350000
8530 2 40.001740 46.123142 3.350000
8531 2 40.848802 48.955141 3.350000
8532 2 41.251886 48.241239 3.350000
8533 2 42.098947 51.073238 3.350000
8534 2 42.502032 50.359336 3.350000
8535 2 43.349093 53.191336 3.350000
8536 2 43.752177 52.477433 3.350000
8537 2 44.599238 55.309433 3.350000
8538 2 45.002323 54.595531 3.350000
8539 2 45.849384 57.427530 3.350000
8540 2 46.252468 56.713628 3.350000
8541 2 -19.199081 -56.973330 3.350000
8542 2 -18.795997 -57.687232 3.350000
8543 2 -17.948936 -54.855233 3.350000
8544 2 -17.545851 -55.569135 3.350000
8545 2 -16.698790 -52.737135 3.350000
8546 2 -16.295706 -53.451038 3.350000
8547 2 -15.448644 -50.619038 3.350000
8548 2 -15.045560 -51.332940 3.350000
8549 2 -14.198499 -48.500941 3.350000
8550 2 -13.795414 -49.214843 3.350000
8551 2 -12.948353 -46.382844 3.350000
8552 2 -12.545269 -47.096746 3.350000
8553 2 -11.698208 -44.264746 3.350000
8554 2 -11.295123 -44.978649 3.350000
8555 2 -10.448062 -42.146649 3.350000
8556 2 -10.044977 -42.860551 3.350000
8557 2 -9.197916 -40.028552 3.350000
8558 2 -8.794832 -40.742454 3.350000
8559 2 -7.947771 -37.910455 3.350000
8560 2 -7.544686 -38.624357 3.350000
8561 2 -6.697625 -35.792357 3.350000
8562 2 -6.294541 -36.506260 3.350000
8563 2 -5.447479 -33.674260 3.350000
8564 2 -5.044395 -34.388162 3.350000
8565 2 -4.197334 -31.556163 3.350000
8566 2 -3.794249 -32.270065 3.350000
8567 2 -2.947188 -29.438066 3.350000
8568 2 -2.544104 -30.151968 3.350000
8569 2 -1.697042 -27.319969 3.350000
8570 2 -1.293958 -28.033871 3.350000
8571 2 -0.446897 -25.201871 3.350000
8572 2 -0.043812 -25.915773 3.350000
8573 2 0.803249 -23.083774 3.350000
8574 2 1.206333 -23.797676 3.350000
8575 2 2.053394 -20.965677 3.350000
8576 2 2.456479 -21.679579 3.350000
8577 2 3.303540 -18.847580 3.350000
8578 2 3.706624 -19.561482 3.350000
8579 2 4.553686 -16.729482 3.350000
8580 2 4.956770 -17.443385 3.350000
8581 2 5.803831 -14.611385 3.350000
8582 2 6.206916 -15.325287 3.350000
8583 2 7.053977 -12.493288 3.350000
8584 2 7.457061 -13.207190 3.350000
8585 2 8.304123 -10.375191 3.350000
8586 2 8.707207 -11.089093 3.350000
8587 2 9.554268 -8.257093 3.350000
8588 2 9.957353 -8.970996 3.350000
8589 2 10.804414 -6.138996 3.350000
8590 2 11.207498 -6.852898 3.350000
8591 2 12.054560 -4.020899 3.350000
8592 2 12.457644 -4.734801 3.350000
8593 2 13.304705 -1.902802 3.350000
8594 2 13.707790 -2.616704 3.350000
8595 2 14.554851 0.215296 3.350000
8596 2 14.957935 -0.498607 3.350000
8597 2 15.804996 2.333393 3.350000
8598 2 16.208081 1.619491 3.350000
8599 2 17.055142 4.451490 3.350000
8600 2 17.458226 3.737588 3.350000
8601 2 18.305288 6.569587 3.350000
8602 2 18.708372 5.855685 3.350000
8603 2 19.555433 8.687684 3.350000
8604 2 19.958518 7.973782 3.350000
8605 2 20.805579 10.805782 3.350000
8606 2 21.208663 10.091880 3.350000
8607 2 22.055725 12.923879 3.350000
8608 2 22.458809 12.209977 3.350000
8609 2 23.305870 15.041976 3.350000
8610 2 23.708955 14.328074 3.350000
8611 2 24.556016 17.160073 3.350000
8612 2 24.959100 16.446171 3.350000
8613 2 25.806161 19.278171 3.350000
8614 2 26.209246 18.564268 3.350000
8615 2 27.056307 21.396268 3.350000
8616 2 27.459392 20.682366 3.350000
8617 2 28.306453 23.514365 3.350000
8618 2 28.709537 22.800463 3.350000
8619 2 29.556598 25.632462 3.350000
8620 2 29.959683 24.918560 3.350000
8621 2 30.806744 27.750560 3.350000
8622 2 31.209828 27.036657 3.350000
8623 2 32.056890 29.868657 3.350000
8624 2 32.459974 29.154755 3.350000
8625 2 33.307035 31.986754 3.350000
8626 2 33.710120 31.272852 3.350000
8627 2 34.557181 34.104851 3.350000
8628 2 34.960265 33.390949 3.350000
8629 2 35.807327 36.222949 3.350000
8630 2 36.210411 35.509046 3.350000
8631 2 37.057472 38.341046 3.350000
8632 2 37.460557 37.627144 3.350000
8633 2 38.307618 40.459143 3.350000
8634 2 38.710702 39.745241 3.350000
8635 2 39.557763 42.577240 3.350000
8636 2 39.960848 41.863338 3.350000
8637 2 40.807909 44.695337 3.350000
8638 2 41.210993 43.981435 3.350000
8639 2 42.058055 46.813435 3.350000
8640 2 42.461139 46.099533 3.350000
8641 2 43.308200 48.931532 3.350000
8642 2 43.711285 48.217630 3.350000
8643 2 44.558346 51.049629 3.350000
8644 2 44.961430 50.335727 3.350000
8645 2 45.808492 53.167726 3.350000
8646 2 46.211576 52.453824 3.350000
8647 2 47.058637 55.285824 3.350000
8648 2 47.461722 54.571921 3.350000
8649 2 48.308783 57.403921 3.350000
8650 2 48.711867 56.690019 3.350000
8651 2 -16.739682 -56.996939 3.350000
8652 2 -16.336598 -57.710841 3.350000
8653 2 -15.489537 -54.878842 3.350000
8654 2 -15.086452 -55.592744 3.350000
8655 2 -14.239391 -52.760745 3.350000
8656 2 -13.836307 -53.474647 3.350000
8657 2 -12.989246 -50.642647 3.350000
8658 2 -12.586161 -51.356550 3.350000
8659 2 -11.739100 -48.524550 3.350000
8660 2 -11.336016 -49.238452 3.350000
8661 2 -10.488954 -46.406453 3.350000
8662 2 -10.085870 -47.120355 3.350000
8663 2 -9.238809 -44.288356 3.350000
8664 2 -8.835724 -45.002258 3.350000
8665 2 -7.988663 -42.170258 3.350000
8666 2 -7.585579 -42.884161 3.350000
8667 2 -6.738517 -40.052161 3.350000
8668 2 -6.335433 -40.766063 3.350000
8669 2 -5.488372 -37.934064 3.350000
8670 2 -5.085287 -38.647966 3.350000
8671 2 -4.238226 -35.815967 3.350000
8672 2 -3.835142 -36.529869 3.350000
8673 2 -2.988081 -33.697869 3.350000
8674 2 -2.584996 -34.411772 3.350000
8675 2 -1.737935 -31.579772 3.350000
8676 2 -1.334850 -32.293674 3.350000
8677 2 -0.487789 -29.461675 3.350000
8678 2 -0.084705 -30.175577 3.350000
8679 2 0.762356 -27.343578 3.350000
8680 2 1.165441 -28.057480 3.350000
8681 2 2.012502 -25.225481 3.350000
8682 2 2.415586 -25.939383 3.350000
8683 2 3.262648 -23.107383 3.350000
8684 2 3.665732 -23.821285 3.350000
8685 2 4.512793 -20.989286 3.350000
8686 2 4.915878 -21.703188 3.350000
8687 2 5.762939 -18.871189 3.350000
8688 2 6.166023 -19.585091 3.350000
8689 2 7.013085 -16.753092 3.350000
8690 2 7.416169 -17.466994 3.350000
8691 2 8.263230 -14.634994 3.350000
8692 2 8.666315 -15.348897 3.350000
8693 2 9.513376 -12.516897 3.350000
8694 2 9.916460 -13.230799 3.350000
8695 2 10.763521 -10.398800 3.350000
8696 2 11.166606 -11.112702 3.350000
8697 2 12.013667 -8.280703 3.350000
8698 2 12.416751 -8.994605 3.350000
8699 2 13.263813 -6.162605 3.350000
8700 2 13.666897 -6.876508 3.350000
8701 2 14.513958 -4.044508 3.350000
8702 2 14.917043 -4.758410 3.350000
8703 2 15.764104 -1.926411 3.350000
8704 2 16.167188 -2.640313 3.350000
8705 2 17.014250 0.191686 3.350000
8706 2 17.417334 -0.522216 3.350000
8707 2 18.264395 2.309784 3.350000
8708 2 18.667480 1.595881 3.350000
8709 2 19.514541 4.427881 3.350000
8710 2 19.917625 3.713979 3.350000
8711 2 20.764687 6.545978 3.350000
8712 2 21.167771 5.832076 3.350000
8713 2 22.014832 8.664075 3.350000
8714 2 22.417917 7.950173 3.350000
8715 2 23.264978 10.782172 3.350000
8716 2 23.668062 10.068270 3.350000
8717 2 24.515123 12.900270 3.350000
8718 2 24.918208 12.186368 3.350000
8719 2 25.765269 15.018367 3.350000
8720 2 26.168353 14.304465 3.350000
8721 2 27.015415 17.136464 3.350000
8722 2 27.418499 16.422562 3.350000
8723 2 28.265560 19.254561 3.350000
8724 2 28.668645 18.540659 3.350000
8725 2 29.515706 21.372659 3.350000
8726 2 29.918790 20.658756 3.350000
8727 2 30.765852 23.490756 3.350000
8728 2 31.168936 22.776854 3.350000
8729 2 32.015997 25.608853 3.350000
8730 2 32.419082 24.894951 3.350000
8731 2 33.266143 27.726950 3.350000
8732 2 33.669227 27.013048 3.350000
8733 2 34.516288 29.845048 3.350000
8734 2 34.919373 29.131145 3.350000
8735 2 35.766434 31.963145 3.350000
8736 2 36.169519 31.249243 3.350000
8737 2 37.016580 34.081242 3.350000
8738 2 37.419664 33.367340 3.350000
8739 2 38.266725 36.199339 3.350000
8740 2 38.669810 35.485437 3.350000
8741 2 39.516871 38.317436 3.350000
8742 2 39.919955 37.603534 3.350000
8743 2 40.767017 40.435534 3.350000
8744 2 41.170101 39.721632 3.350000
8745 2 42.017162 42.553631 3.350000
8746 2 42.420247 41.839729 3.350000
8747 2 43.267308 44.671728 3.350000
8748 2 43.670392 43.957826 3.350000
8749 2 44.517454 46.789825 3.350000
8750 2 44.920538 46.075923 3.350000
8751 2 45.767599 48.907923 3.350000
8752 2 46.170684 48.194021 3.350000
8753 2 47.017745 51.026020 3.350000
8754 2 47.420829 50.312118 3.350000
8755 2 48.267890 53.144117 3.350000
8756 2 48.670975 52.430215 3.350000
8757 2 49.518036 55.262214 3.350000
8758 2 49.921120 54.548312 3.350000
8759 2 50.768182 57.380312 3.350000
8760 2 51.171266 56.666409 3.350000
8761 2 -14.280284 -57.020548 3.350000
8762 2 -13.877199 -57.734450 3.350000
8763 2 -13.030138 -54.902451 3.350000
8764 2 -12.627054 -55.616353 3.350000
8765 2 -11.779992 -52.784354 3.350000
8766 2 -11.376908 -53.498256 3.350000
8767 2 -10.529847 -50.666257 3.350000
8768 2 -10.126762 -51.380159 3.350000
8769 2 -9.279701 -48.548159 3.350000
8770 2 -8.876617 -49.262062 3.350000
8771 2 -8.029555 -46.430062 3.350000
8772 2 -7.626471 -47.143964 3.350000
8773 2 -6.779410 -44.311965 3.350000
8774 2 -6.376325 -45.025867 3.350000
8775 2 -5.529264 -42.193868 3.350000
8776 2 -5.126180 -42.907770 3.350000
8777 2 -4.279119 -40.075770 3.350000
8778 2 -3.876034 -40.789673 3.350000
8779 2 -3.028973 -37.957673 3.350000
8780 2 -2.625889 -38.671575 3.350000
8781 2 -1.778827 -35.839576 3.350000
8782 2 -1.375743 -36.553478 3.350000
8783 2 -0.528682 -33.721479 3.350000
8784 2 -0.125597 -34.435381 3.350000
8785 2 0.721464 -31.603382 3.350000
8786 2 1.124548 -32.317284 3.350000
8787 2 1.971610 -29.485284 3.350000
8788 2 2.374694 -30.199186 3.350000
8789 2 3.221755 -27.367187 3.350000
8790 2 3.624840 -28.081089 3.350000
8791 2 4.471901 -25.249090 3.350000
8792 2 4.874985 -25.962992 3.350000
8793 2 5.722046 -23.130993 3.350000
8794 2 6.125131 -23.844895 3.350000
8795 2 6.972192 -21.012895 3.350000
8796 2 7.375277 -21.726798 3.350000
8797 2 8.222338 -18.894798 3.350000
8798 2 8.625422 -19.608700 3.350000
8799 2 9.472483 -16.776701 3.350000
8800 2 9.875568 -17.490603 3.350000
8801 2 10.722629 -14.658604 3.350000
8802 2 11.125713 -15.372506 3.350000
8803 2 11.972775 -12.540506 3.350000
8804 2 12.375859 -13.254409 3.350000
8805 2 13.222920 -10.422409 3.350000
8806 2 13.626005 -11.136311 3.350000
8807 2 14.473066 -8.304312 3.350000
8808 2 14.876150 -9.018214 3.350000
8809 2 15.723212 -6.186215 3.350000
8810 2 16.126296 -6.900117 3.350000
8811 2 16.973357 -4.068117 3.350000
8812 2 17.376442 -4.782020 3.350000
8813 2 18.223503 -1.950020 3.350000
8814 2 18.626587 -2.663922 3.350000
8815 2 19.473648 0.168077 3.350000
8816 2 19.876733 -0.545825 3.350000
8817 2 20.723794 2.286174 3.350000
8818 2 21.126878 1.572272 3.350000
8819 2 21.973940 4.404271 3.350000
8820 2 22.377024 3.690369 3.350000
8821 2 23.224085 6.522369 3.350000
8822 2 23.627170 5.808467 3.350000
8823 2 24.474231 8.640466 3.350000
8824 2 24.877315 7.926564 3.350000
8825 2 25.724377 10.758563 3.350000
8826 2 26.127461 10.044661 3.350000
8827 2 26.974522 12.876660 3.350000
8828 2 27.377607 12.162758 3.350000
8829 2 28.224668 14.994758 3.350000
8830 2 28.627752 14.280855 3.350000
8831 2 29.474814 17.112855 3.350000
8832 2 29.877898 16.398953 3.350000
8833 2 30.724959 19.230952 3.350000
8834 2 31.128044 18.517050 3.350000
8835 2 31.975105 21.349049 3.350000
8836 2 32.378189 20.635147 3.350000
8837 2 33.225250 23.467147 3.350000
8838 2 33.628335 22.753244 3.350000
8839 2 34.475396 25.585244 3.350000
8840 2 34.878480 24.871342 3.350000
8841 2 35.725542 27.703341 3.350000
8842 2 36.128626 26.989439 3.350000
8843 2 36.975687 29.821438 3.350000
8844 2 37.378772 29.107536 3.350000
8845 2 38.225833 31.939536 3.350000
8846 2 38.628917 31.225633 3.350000
8847 2 39.475979 34.057633 3.350000
8848 2 39.879063 33.343731 3.350000
8849 2 40.726124 36.175730 3.350000
8850 2 41.129209 35.461828 3.350000
8851 2 41.976270 38.293827 3.350000
8852 2 42.379354 37.579925 3.350000
8853 2 43.226415 40.411924 3.350000
8854 2 43.629500 39.698022 3.350000
8855 2 44.476561 42.530022 3.350000
8856 2 44.879645 41.816120 3.350000
8857 2 45.726707 44.648119 3.350000
8858 2 46.129791 43.934217 3.350000
8859 2 46.976852 46.766216 3.350000
8860 2 47.379937 46.052314 3.350000
8861 2 48.226998 48.884313 3.350000
8862 2 48.630082 48.170411 3.350000
8863 2 49.477144 51.002411 3.350000
8864 2 49.880228 50.288508 3.350000
8865 2 50.727289 53.120508 3.350000
8866 2 51.130374 52.406606 3.350000
8867 2 51.977435 55.238605 3.350000
8868 2 52.380519 54.524703 3.350000
8869 2 -11.820885 -57.044158 3.350000
8870 2 -11.417800 -57.758060 3.350000
8871 2 -10.570739 -54.926060 3.350000
8872 2 -10.167655 -55.639963 3.350000
8873 2 -9.320594 -52.807963 3.350000
8874 2 -8.917509 -53.521865 3.350000
8875 2 -8.070448 -50.689866 3.350000
8876 2 -7.667364 -51.403768 3.350000
8877 2 -6.820302 -48.571769 3.350000
8878 2 -6.417218 -49.285671 3.350000
8879 2 -5.570157 -46.453671 3.350000
8880 2 -5.167072 -47.167574 3.350000
8881 2 -4.320011 -44.335574 3.350000
8882 2 -3.916927 -45.049476 3.350000
8883 2 -3.069865 -42.217477 3.350000
8884 2 -2.666781 -42.931379 3.350000
8885 2 -1.819720 -40.099380 3.350000
8886 2 -1.416635 -40.813282 3.350000
8887 2 -0.569574 -37.981282 3.350000
8888 2 -0.166490 -38.695185 3.350000
8889 2 0.680572 -35.863185 3.350000
8890 2 1.083656 -36.577087 3.350000
8891 2 1.930717 -33.745088 3.350000
8892 2 2.333802 -34.458990 3.350000
8893 2 3.180863 -31.626991 3.350000
8894 2 3.583947 -32.340893 3.350000
8895 2 4.431008 -29.508894 3.350000
8896 2 4.834093 -30.222796 3.350000
8897 2 5.681154 -27.390796 3.350000
8898 2 6.084238 -28.104698 3.350000
8899 2 6.931300 -25.272699 3.350000
8900 2 7.334384 -25.986601 3.350000
8901 2 8.181445 -23.154602 3.350000
8902 2 8.584530 -23.868504 3.350000
8903 2 9.431591 -21.036505 3.350000
8904 2 9.834675 -21.750407 3.350000
8905 2 10.681737 -18.918407 3.350000
8906 2 11.084821 -19.632310 3.350000
8907 2 11.931882 -16.800310 3.350000
8908 2 12.334967 -17.514212 3.350000
8909 2 13.182028 -14.682213 3.350000
8910 2 13.585112 -15.396115 3.350000
8911 2 14.432173 -12.564116 3.350000
8912 2 14.835258 -13.278018 3.350000
8913 2 15.682319 -10.446018 3.350000
8914 2 16.085404 -11.159921 3.350000
8915 2 16.932465 -8.327921 3.350000
8916 2 17.335549 -9.041823 3.350000
8917 2 18.182610 -6.209824 3.350000
8918 2 18.585695 -6.923726 3.350000
8919 2 19.432756 -4.091727 3.350000
8920 2 19.835840 -4.805629 3.350000
8921 2 20.682902 -1.973629 3.350000
8922 2 21.085986 -2.687532 3.350000
8923 2 21.933047 0.144468 3.350000
8924 2 22.336132 -0.569434 3.350000
8925 2 23.183193 2.262565 3.350000
8926 2 23.586277 1.548663 3.350000
8927 2 24.433339 4.380662 3.350000
8928 2 24.836423 3.666760 3.350000
8929 2 25.683484 6.498759 3.350000
8930 2 26.086569 5.784857 3.350000
8931 2 26.933630 8.616857 3.350000
8932 2 27.336714 7.902955 3.350000
8933 2 28.183775 10.734954 3.350000
8934 2 28.586860 10.021052 3.350000
8935 2 29.433921 12.853051 3.350000
8936 2 29.837005 12.139149 3.350000
8937 2 30.684067 14.971148 3.350000
8938 2 31.087151 14.257246 3.350000
8939 2 31.934212 17.089246 3.350000
8940 2 32.337297 16.375343 3.350000
8941 2 33.184358 19.207343 3.350000
8942 2 33.587442 18.493441 3.350000
8943 2 34.434504 21.325440 3.350000
8944 2 34.837588 20.611538 3.350000
8945 2 35.684649 23.443537 3.350000
8946 2 36.087734 22.729635 3.350000
8947 2 36.934795 25.561635 3.350000
8948 2 37.337879 24.847732 3.350000
8949 2 38.184940 27.679732 3.350000
8950 2 38.588025 26.965830 3.350000
8951 2 39.435086 29.797829 3.350000
8952 2 39.838171 29.083927 3.350000
8953 2 40.685232 31.915926 3.350000
8954 2 41.088316 31.202024 3.350000
8955 2 41.935377 34.034024 3.350000
8956 2 42.338462 33.320121 3.350000
8957 2 43.185523 36.152121 3.350000
8958 2 43.588607 35.438219 3.350000
8959 2 44.435669 38.270218 3.350000
8960 2 44.838753 37.556316 3.350000
8961 2 45.685814 40.388315 3.350000
8962 2 46.088899 39.674413 3.350000
8963 2 46.935960 42.506412 3.350000
8964 2 47.339044 41.792510 3.350000
8965 2 48.186106 44.624510 3.350000
8966 2 48.589190 43.910608 3.350000
8967 2 49.436251 46.742607 3.350000
8968 2 49.839336 46.028705 3.350000
8969 2 50.686397 48.860704 3.350000
8970 2 51.089481 48.146802 3.350000
8971 2 51.936542 50.978801 3.350000
8972 2 52.339627 50.264899 3.350000
8973 2 53.186688 53.096899 3.350000
8974 2 53.589772 52.382996 3.350000
8975 2 -9.361486 -57.067767 3.350000
8976 2 -8.958402 -57.781669 3.350000
8977 2 -8.111340 -54.949670 3.350000
8978 2 -7.708256 -55.663572 3.350000
8979 2 -6.861195 -52.831572 3.350000
8980 2 -6.458110 -53.545475 3.350000
8981 2 -5.611049 -50.713475 3.350000
8982 2 -5.207965 -51.427377 3.350000
8983 2 -4.360903 -48.595378 3.350000
8984 2 -3.957819 -49.309280 3.350000
8985 2 -3.110758 -46.477281 3.350000
8986 2 -2.707673 -47.191183 3.350000
8987 2 -1.860612 -44.359183 3.350000
8988 2 -1.457528 -45.073086 3.350000
8989 2 -0.610467 -42.241086 3.350000
8990 2 -0.207382 -42.954988 3.350000
8991 2 0.639679 -40.122989 3.350000
8992 2 1.042763 -40.836891 3.350000
8993 2 1.889825 -38.004892 3.350000
8994 2 2.292909 -38.718794 3.350000
8995 2 3.139970 -35.886795 3.350000
8996 2 3.543055 -36.600697 3.350000
8997 2 4.390116 -33.768697 3.350000
8998 2 4.793200 -34.482599 3.350000
8999 2 5.640262 -31.650600 3.350000
9000 2 6.043346 -32.364502 3.350000
9001 2 6.890407 -29.532503 3.350000
9002 2 7.293492 -30.246405 3.350000
9003 2 8.140553 -27.414406 3.350000
9004 2 8.543637 -28.128308 3.350000
9005 2 9.390699 -25.296308 3.350000
9006 2 9.793783 -26.010210 3.350000
9007 2 10.640844 -23.178211 3.350000
9008 2 11.043929 -23.892113 3.350000
9009 2 11.890990 -21.060114 3.350000
9010 2 12.294074 -21.774016 3.350000
9011 2 13.141135 -18.942017 3.350000
9012 2 13.544220 -19.655919 3.350000
9013 2 14.391281 -16.823919 3.350000
9014 2 14.794365 -17.537822 3.350000
9015 2 15.641427 -14.705822 3.350000
9016 2 16.044511 -15.419724 3.350000
9017 2 16.891572 -12.587725 3.350000
9018 2 17.294657 -13.301627 3.350000
9019 2 18.141718 -10.469628 3.350000
9020 2 18.544802 -11.183530 3.350000
9021 2 19.391864 -8.351530 3.350000
9022 2 19.794948 -9.065433 3.350000
9023 2 20.642009 -6.233433 3.350000
9024 2 21.045094 -6.947335 3.350000
9025 2 21.892155 -4.115336 3.350000
9026 2 22.295239 -4.829238 3.350000
9027 2 23.142300 -1.997239 3.350000
9028 2 23.545385 -2.711141 3.350000
9029 2 24.392446 0.120858 3.350000
9030 2 24.795530 -0.593044 3.350000
9031 2 25.642592 2.238956 3.350000
9032 2 26.045676 1.525054 3.350000
9033 2 26.892737 4.357053 3.350000
9034 2 27.295822 3.643151 3.350000
9035 2 28.142883 6.475150 3.350000
9036 2 28.545967 5.761248 3.350000
9037 2 29.393029 8.593247 3.350000
9038 2 29.796113 7.879345 3.350000
9039 2 30.643174 10.711345 3.350000
9040 2 31.046259 9.997443 3.350000
9041 2 31.893320 12.829442 3.350000
9042 2 32.296404 12.115540 3.350000
9043 2 33.143466 14.947539 3.350000
9044 2 33.546550 14.233637 3.350000
9045 2 34.393611 17.065636 3.350000
9046 2 34.796696 16.351734 3.350000
9047 2 35.643757 19.183734 3.350000
9048 2 36.046841 18.469831 3.350000
9049 2 36.893902 21.301831 3.350000
9050 2 37.296987 20.587929 3.350000
9051 2 38.144048 23.419928 3.350000
9052 2 38.547132 22.706026 3.350000
9053 2 39.394194 25.538025 3.350000
9054 2 39.797278 24.824123 3.350000
9055 2 40.644339 27.656123 3.350000
9056 2 41.047424 26.942220 3.350000
9057 2 41.894485 29.774220 3.350000
9058 2 42.297569 29.060318 3.350000
9059 2 43.144631 31.892317 3.350000
9060 2 43.547715 31.178415 3.350000
9061 2 44.394776 34.010414 3.350000
9062 2 44.797861 33.296512 3.350000
9063 2 45.644922 36.128511 3.350000
9064 2 46.048006 35.414609 3.350000
9065 2 46.895067 38.246609 3.350000
9066 2 47.298152 37.532707 3.350000
9067 2 48.145213 40.364706 3.350000
9068 2 48.548298 39.650804 3.350000
9069 2 49.395359 42.482803 3.350000
9070 2 49.798443 41.768901 3.350000
9071 2 50.645504 44.600900 3.350000
9072 2 51.048589 43.886998 3.350000
9073 2 51.895650 46.718998 3.350000
9074 2 52.298734 46.005095 3.350000
9075 2 53.145796 48.837095 3.350000
9076 2 53.548880 48.123193 3.350000
9077 2 54.395941 50.955192 3.350000
9078 2 54.799026 50.241290 3.350000
9079 2 56.049171 52.359387 3.350000
9080 2 -6.902087 -57.091376 3.350000
9081 2 -6.499003 -57.805278 3.350000
9082 2 -5.651942 -54.973279 3.350000
9083 2 -5.248857 -55.687181 3.350000
9084 2 -4.401796 -52.855182 3.350000
9085 2 -3.998711 -53.569084 3.350000
9086 2 -3.151650 -50.737084 3.350000
9087 2 -2.748566 -51.450987 3.350000
9088 2 -1.901505 -48.618987 3.350000
9089 2 -1.498420 -49.332889 3.350000
9090 2 -0.651359 -46.500890 3.350000
9091 2 -0.248275 -47.214792 3.350000
9092 2 0.598787 -44.382793 3.350000
9093 2 1.001871 -45.096695 3.350000
9094 2 1.848932 -42.264695 3.350000
9095 2 2.252017 -42.978598 3.350000
9096 2 3.099078 -40.146598 3.350000
9097 2 3.502162 -40.860500 3.350000
9098 2 4.349224 -38.028501 3.350000
9099 2 4.752308 -38.742403 3.350000
9100 2 5.599369 -35.910404 3.350000
9101 2 6.002454 -36.624306 3.350000
9102 2 6.849515 -33.792307 3.350000
9103 2 7.252599 -34.506209 3.350000
9104 2 8.099660 -31.674209 3.350000
9105 2 8.502745 -32.388111 3.350000
9106 2 9.349806 -29.556112 3.350000
9107 2 9.752890 -30.270014 3.350000
9108 2 10.599952 -27.438015 3.350000
9109 2 11.003036 -28.151917 3.350000
9110 2 11.850097 -25.319918 3.350000
9111 2 12.253182 -26.033820 3.350000
9112 2 13.100243 -23.201820 3.350000
9113 2 13.503327 -23.915723 3.350000
9114 2 14.350389 -21.083723 3.350000
9115 2 14.753473 -21.797625 3.350000
9116 2 15.600534 -18.965626 3.350000
9117 2 16.003619 -19.679528 3.350000
9118 2 16.850680 -16.847529 3.350000
9119 2 17.253764 -17.561431 3.350000
9120 2 18.100825 -14.729431 3.350000
9121 2 18.503910 -15.443334 3.350000
9122 2 19.350971 -12.611334 3.350000
9123 2 19.754056 -13.325236 3.350000
9124 2 20.601117 -10.493237 3.350000
9125 2 21.004201 -11.207139 3.350000
9126 2 21.851262 -8.375140 3.350000
9127 2 22.254347 -9.089042 3.350000
9128 2 23.101408 -6.257042 3.350000
9129 2 23.504492 -6.970945 3.350000
9130 2 24.351554 -4.138945 3.350000
9131 2 24.754638 -4.852847 3.350000
9132 2 25.601699 -2.020848 3.350000
9133 2 26.004784 -2.734750 3.350000
9134 2 26.851845 0.097249 3.350000
9135 2 27.254929 -0.616653 3.350000
9136 2 28.101991 2.215346 3.350000
9137 2 28.505075 1.501444 3.350000
9138 2 29.352136 4.333444 3.350000
9139 2 29.755221 3.619542 3.350000
9140 2 30.602282 6.451541 3.350000
9141 2 31.005366 5.737639 3.350000
9142 2 31.852427 8.569638 3.350000
9143 2 32.255512 7.855736 3.350000
9144 2 33.102573 10.687735 3.350000
9145 2 33.505657 9.973833 3.350000
9146 2 34.352719 12.805833 3.350000
9147 2 34.755803 12.091930 3.350000
9148 2 35.602864 14.923930 3.350000
9149 2 36.005949 14.210028 3.350000
9150 2 36.853010 17.042027 3.350000
9151 2 37.256094 16.328125 3.350000
9152 2 38.103156 19.160124 3.350000
9153 2 38.506240 18.446222 3.350000
9154 2 39.353301 21.278222 3.350000
9155 2 39.756386 20.564319 3.350000
9156 2 40.603447 23.396319 3.350000
9157 2 41.006531 22.682417 3.350000
9158 2 41.853593 25.514416 3.350000
9159 2 42.256677 24.800514 3.350000
9160 2 43.103738 27.632513 3.350000
9161 2 43.506823 26.918611 3.350000
9162 2 44.353884 29.750611 3.350000
9163 2 44.756968 29.036708 3.350000
9164 2 45.604029 31.868708 3.350000
9165 2 46.007114 31.154806 3.350000
9166 2 46.854175 33.986805 3.350000
9167 2 47.257259 33.272903 3.350000
9168 2 48.104321 36.104902 3.350000
9169 2 48.507405 35.391000 3.350000
9170 2 49.354466 38.222999 3.350000
9171 2 49.757551 37.509097 3.350000
9172 2 50.604612 40.341097 3.350000
9173 2 51.007696 39.627195 3.350000
9174 2 51.854758 42.459194 3.350000
9175 2 52.257842 41.745292 3.350000
9176 2 53.104903 44.577291 3.350000
9177 2 53.507988 43.863389 3.350000
9178 2 54.355049 46.695388 3.350000
9179 2 54.758133 45.981486 3.350000
9180 2 55.605194 48.813486 3.350000
9181 2 56.008279 48.099583 3.350000
9182 2 56.855340 50.931583 3.350000
9183 2 57.258425 50.217681 3.350000
9184 2 -4.442688 -57.114985 3.350000
9185 2 -4.039604 -57.828888 3.350000
9186 2 -3.192543 -54.996888 3.350000
9187 2 -2.789458 -55.710790 3.350000
9188 2 -1.942397 -52.878791 3.350000
9189 2 -1.539313 -53.592693 3.350000
9190 2 -0.692251 -50.760694 3.350000
9191 2 -0.289167 -51.474596 3.350000
9192 2 0.557894 -48.642596 3.350000
9193 2 0.960979 -49.356499 3.350000
9194 2 1.808040 -46.524499 3.350000
9195 2 2.211124 -47.238401 3.350000
9196 2 3.058185 -44.406402 3.350000
9197 2 3.461270 -45.120304 3.350000
9198 2 4.308331 -42.288305 3.350000
9199 2 4.711415 -43.002207 3.350000
9200 2 5.558477 -40.170207 3.350000
9201 2 5.961561 -40.884110 3.350000
9202 2 6.808622 -38.052110 3.350000
9203 2 7.211707 -38.766012 3.350000
9204 2 8.058768 -35.934013 3.350000
9205 2 8.461852 -36.647915 3.350000
9206 2 9.308914 -33.815916 3.350000
9207 2 9.711998 -34.529818 3.350000
9208 2 10.559059 -31.697819 3.350000
9209 2 10.962144 -32.411721 3.350000
9210 2 11.809205 -29.579721 3.350000
9211 2 12.212289 -30.293623 3.350000
9212 2 13.059351 -27.461624 3.350000
9213 2 13.462435 -28.175526 3.350000
9214 2 14.309496 -25.343527 3.350000
9215 2 14.712581 -26.057429 3.350000
9216 2 15.559642 -23.225430 3.350000
9217 2 15.962726 -23.939332 3.350000
9218 2 16.809787 -21.107332 3.350000
9219 2 17.212872 -21.821235 3.350000
9220 2 18.059933 -18.989235 3.350000
9221 2 18.463017 -19.703137 3.350000
9222 2 19.310079 -16.871138 3.350000
9223 2 19.713163 -17.585040 3.350000
9224 2 20.560224 -14.753041 3.350000
9225 2 20.963309 -15.466943 3.350000
9226 2 21.810370 -12.634943 3.350000
9227 2 22.213454 -13.348846 3.350000
9228 2 23.060516 -10.516846 3.350000
9229 2 23.463600 -11.230748 3.350000
9230 2 24.310661 -8.398749 3.350000
9231 2 24.713746 -9.112651 3.350000
9232 2 25.560807 -6.280652 3.350000
9233 2 25.963891 -6.994554 3.350000
9234 2 26.810952 -4.162554 3.350000
9235 2 27.214037 -4.876457 3.350000
9236 2 28.061098 -2.044457 3.350000
9237 2 28.464183 -2.758359 3.350000
9238 2 29.311244 0.073640 3.350000
9239 2 29.714328 -0.640262 3.350000
9240 2 30.561389 2.191737 3.350000
9241 2 30.964474 1.477835 3.350000
9242 2 31.811535 4.309834 3.350000
9243 2 32.214619 3.595932 3.350000
9244 2 33.061681 6.427932 3.350000
9245 2 33.464765 5.714030 3.350000
9246 2 34.311826 8.546029 3.350000
9247 2 34.714911 7.832127 3.350000
9248 2 35.561972 10.664126 3.350000
9249 2 35.965056 9.950224 3.350000
9250 2 36.812118 12.782223 3.350000
9251 2 37.215202 12.068321 3.350000
9252 2 38.062263 14.900321 3.350000
9253 2 38.465348 14.186418 3.350000
9254 2 39.312409 17.018418 3.350000
9255 2 39.715493 16.304516 3.350000
9256 2 40.562554 19.136515 3.350000
9257 2 40.965639 18.422613 3.350000
9258 2 41.812700 21.254612 3.350000
9259 2 42.215784 20.540710 3.350000
9260 2 43.062846 23.372710 3.350000
9261 2 43.465930 22.658807 3.350000
9262 2 44.312991 25.490807 3.350000
9263 2 44.716076 24.776905 3.350000
9264 2 45.563137 27.608904 3.350000
9265 2 45.966221 26.895002 3.350000
9266 2 46.813283 29.727001 3.350000
9267 2 47.216367 29.013099 3.350000
9268 2 48.063428 31.845098 3.350000
9269 2 48.466513 31.131196 3.350000
9270 2 49.313574 33.963196 3.350000
9271 2 49.716658 33.249294 3.350000
9272 2 50.563720 36.081293 3.350000
9273 2 50.966804 35.367391 3.350000
9274 2 51.813865 38.199390 3.350000
9275 2 52.216950 37.485488 3.350000
9276 2 53.064011 40.317487 3.350000
9277 2 53.467095 39.603585 3.350000
9278 2 54.314156 42.435585 3.350000
9279 2 54.717241 41.721683 3.350000
9280 2 55.564302 44.553682 3.350000
9281 2 55.967386 43.839780 3.350000
9282 2 56.814448 46.671779 3.350000
9283 2 57.217532 45.957877 3.350000
9284 2 58.064593 48.789876 3.350000
9285 2 58.467678 48.075974 3.350000
9286 2 -1.983290 -57.138595 3.350000
9287 2 -1.580205 -57.852497 3.350000
9288 2 -0.733144 -55.020497 3.350000
9289 2 -0.330059 -55.734400 3.350000
9290 2 0.517002 -52.902400 3.350000
9291 2 0.920086 -53.616302 3.350000
9292 2 1.767147 -50.784303 3.350000
9293 2 2.170232 -51.498205 3.350000
9294 2 3.017293 -48.666206 3.350000
9295 2 3.420377 -49.380108 3.350000
9296 2 4.267439 -46.548108 3.350000
9297 2 4.670523 -47.262011 3.350000
9298 2 5.517584 -44.430011 3.350000
9299 2 5.920669 -45.143913 3.350000
9300 2 6.767730 -42.311914 3.350000
9301 2 7.170814 -43.025816 3.350000
9302 2 8.017876 -40.193817 3.350000
9303 2 8.420960 -40.907719 3.350000
9304 2 9.268021 -38.075720 3.350000
9305 2 9.671106 -38.789622 3.350000
9306 2 10.518167 -35.957622 3.350000
9307 2 10.921251 -36.671524 3.350000
9308 2 11.768312 -33.839525 3.350000
9309 2 12.171397 -34.553427 3.350000
9310 2 13.018458 -31.721428 3.350000
9311 2 13.421542 -32.435330 3.350000
9312 2 14.268604 -29.603331 3.350000
9313 2 14.671688 -30.317233 3.350000
9314 2 15.518749 -27.485233 3.350000
9315 2 15.921834 -28.199136 3.350000
9316 2 16.768895 -25.367136 3.350000
9317 2 17.171979 -26.081038 3.350000
9318 2 18.019041 -23.249039 3.350000
9319 2 18.422125 -23.962941 3.350000
9320 2 19.269186 -21.130942 3.350000
9321 2 19.672271 -21.844844 3.350000
9322 2 20.519332 -19.012844 3.350000
9323 2 20.922416 -19.726747 3.350000
9324 2 21.769478 -16.894747 3.350000
9325 2 22.172562 -17.608649 3.350000
9326 2 23.019623 -14.776650 3.350000
9327 2 23.422708 -15.490552 3.350000
9328 2 24.269769 -12.658553 3.350000
9329 2 24.672853 -13.372455 3.350000
9330 2 25.519914 -10.540455 3.350000
9331 2 25.922999 -11.254358 3.350000
9332 2 26.770060 -8.422358 3.350000
9333 2 27.173144 -9.136260 3.350000
9334 2 28.020206 -6.304261 3.350000
9335 2 28.423290 -7.018163 3.350000
9336 2 29.270351 -4.186164 3.350000
9337 2 29.673436 -4.900066 3.350000
9338 2 30.520497 -2.068067 3.350000
9339 2 30.923581 -2.781969 3.350000
9340 2 31.770643 0.050031 3.350000
9341 2 32.173727 -0.663871 3.350000
9342 2 33.020788 2.168128 3.350000
9343 2 33.423873 1.454226 3.350000
9344 2 34.270934 4.286225 3.350000
9345 2 34.674018 3.572323 3.350000
9346 2 35.521079 6.404322 3.350000
9347 2 35.924164 5.690420 3.350000
9348 2 36.771225 8.522420 3.350000
9349 2 37.174310 7.808517 3.350000
9350 2 38.021371 10.640517 3.350000
9351 2 38.424455 9.926615 3.350000
9352 2 39.271516 12.758614 3.350000
9353 2 39.674601 12.044712 3.350000
9354 2 40.521662 14.876711 3.350000
9355 2 40.924746 14.162809 3.350000
9356 2 41.771808 16.994809 3.350000
9357 2 42.174892 16.280906 3.350000
9358 2 43.021953 19.112906 3.350000
9359 2 43.425038 18.399004 3.350000
9360 2 44.272099 21.231003 3.350000
9361 2 44.675183 20.517101 3.350000
9362 2 45.522245 23.349100 3.350000
9363 2 45.925329 22.635198 3.350000
9364 2 46.772390 25.467198 3.350000
9365 2 47.175475 24.753295 3.350000
9366 2 48.022536 27.585295 3.350000
9367 2 48.425620 26.871393 3.350000
9368 2 49.272681 29.703392 3.350000
9369 2 49.675766 28.989490 3.350000
9370 2 50.522827 31.821489 3.350000
9371 2 50.925911 31.107587 3.350000
9372 2 51.772973 33.939586 3.350000
9373 2 52.176057 33.225684 3.350000
9374 2 53.023118 36.057684 3.350000
9375 2 53.426203 35.343782 3.350000
9376 2 54.273264 38.175781 3.350000
9377 2 54.676348 37.461879 3.350000
9378 2 55.523410 40.293878 3.350000
9379 2 55.926494 39.579976 3.350000
9380 2 56.773555 42.411975 3.350000
9381 2 57.176640 41.698073 3.350000
9382 2 58.023701 44.530073 3.350000
9383 2 58.426785 43.816170 3.350000
9384 2 59.273847 46.648170 3.350000
9385 2 59.676931 45.934268 3.350000
9386 2 0.476109 -57.162204 3.350000
9387 2 0.879194 -57.876106 3.350000
9388 2 1.726255 -55.044107 3.350000
9389 2 2.129339 -55.758009 3.350000
9390 2 2.976401 -52.926009 3.350000
9391 2 3.379485 -53.639912 3.350000
9392 2 4.226546 -50.807912 3.350000
9393 2 4.629631 -51.521814 3.350000
9394 2 5.476692 -48.689815 3.350000
9395 2 5.879776 -49.403717 3.350000
9396 2 6.726837 -46.571718 3.350000
9397 2 7.129922 -47.285620 3.350000
9398 2 7.976983 -44.453620 3.350000
9399 2 8.380068 -45.167523 3.350000
9400 2 9.227129 -42.335523 3.350000
9401 2 9.630213 -43.049425 3.350000
9402 2 10.477274 -40.217426 3.350000
9403 2 10.880359 -40.931328 3.350000
9404 2 11.727420 -38.099329 3.350000
9405 2 12.130504 -38.813231 3.350000
9406 2 12.977566 -35.981232 3.350000
9407 2 13.380650 -36.695134 3.350000
9408 2 14.227711 -33.863134 3.350000
9409 2 14.630796 -34.577036 3.350000
9410 2 15.477857 -31.745037 3.350000
9411 2 15.880941 -32.458939 3.350000
9412 2 16.728003 -29.626940 3.350000
9413 2 17.131087 -30.340842 3.350000
9414 2 17.978148 -27.508843 3.350000
9415 2 18.381233 -28.222745 3.350000
9416 2 19.228294 -25.390745 3.350000
9417 2 19.631378 -26.104648 3.350000
9418 2 20.478439 -23.272648 3.350000
9419 2 20.881524 -23.986550 3.350000
9420 2 21.728585 -21.154551 3.350000
9421 2 22.131669 -21.868453 3.350000
9422 2 22.978731 -19.036454 3.350000
9423 2 23.381815 -19.750356 3.350000
9424 2 24.228876 -16.918356 3.350000
9425 2 24.631961 -17.632259 3.350000
9426 2 25.479022 -14.800259 3.350000
9427 2 25.882106 -15.514161 3.350000
9428 2 26.729168 -12.682162 3.350000
9429 2 27.132252 -13.396064 3.350000
9430 2 27.979313 -10.564065 3.350000
9431 2 28.382398 -11.277967 3.350000
9432 2 29.229459 -8.445967 3.350000
9433 2 29.632543 -9.159870 3.350000
9434 2 30.479605 -6.327870 3.350000
9435 2 30.882689 -7.041772 3.350000
9436 2 31.729750 -4.209773 3.350000
9437 2 32.132835 -4.923675 3.350000
9438 2 32.979896 -2.091676 3.350000
9439 2 33.382980 -2.805578 3.350000
9440 2 34.230041 0.026421 3.350000
9441 2 34.633126 -0.687481 3.350000
9442 2 35.480187 2.144519 3.350000
9443 2 35.883271 1.430617 3.350000
9444 2 36.730333 4.262616 3.350000
9445 2 37.133417 3.548714 3.350000
9446 2 37.980478 6.380713 3.350000
9447 2 38.383563 5.666811 3.350000
9448 2 39.230624 8.498810 3.350000
9449 2 39.633708 7.784908 3.350000
9450 2 40.480770 10.616908 3.350000
9451 2 40.883854 9.903005 3.350000
9452 2 41.730915 12.735005 3.350000
9453 2 42.134000 12.021103 3.350000
9454 2 42.981061 14.853102 3.350000
9455 2 43.384145 14.139200 3.350000
9456 2 44.231206 16.971199 3.350000
9457 2 44.634291 16.257297 3.350000
9458 2 45.481352 19.089297 3.350000
9459 2 45.884437 18.375394 3.350000
9460 2 46.731498 21.207394 3.350000
9461 2 47.134582 20.493492 3.350000
9462 2 47.981643 23.325491 3.350000
9463 2 48.384728 22.611589 3.350000
9464 2 49.231789 25.443588 3.350000
9465 2 49.634873 24.729686 3.350000
9466 2 50.481935 27.561686 3.350000
9467 2 50.885019 26.847783 3.350000
9468 2 51.732080 29.679783 3.350000
9469 2 52.135165 28.965881 3.350000
9470 2 52.982226 31.797880 3.350000
9471 2 53.385310 31.083978 3.350000
9472 2 54.232372 33.915977 3.350000
9473 2 54.635456 33.202075 3.350000
9474 2 55.482517 36.034074 3.350000
9475 2 55.885602 35.320172 3.350000
9476 2 56.732663 38.152172 3.350000
9477 2 57.135747 37.438270 3.350000
9478 2 57.982808 40.270269 3.350000
9479 2 58.385893 39.556367 3.350000
9480 2 59.232954 42.388366 3.350000
9481 2 59.636038 41.674464 3.350000
9482 2 60.483100 44.506463 3.350000
9483 2 60.886184 43.792561 3.350000
9484 2 2.935508 -57.185813 3.350000
9485 2 3.338593 -57.899715 3.350000
9486 2 4.185654 -55.067716 3.350000
9487 2 4.588738 -55.781618 3.350000
9488 2 5.435799 -52.949619 3.350000
9489 2 5.838884 -53.663521 3.350000
9490 2 6.685945 -50.831521 3.350000
9491 2 7.089029 -51.545424 3.350000
9492 2 7.936091 -48.713424 3.350000
9493 2 8.339175 -49.427326 3.350000
9494 2 9.186236 -46.595327 3.350000
9495 2 9.589321 -47.309229 3.350000
9496 2 10.436382 -44.477230 3.350000
9497 2 10.839466 -45.191132 3.350000
9498 2 11.686528 -42.359133 3.350000
9499 2 12.089612 -43.073035 3.350000
9500 2 12.936673 -40.241035 3.350000
9501 2 13.339758 -40.954937 3.350000
9502 2 14.186819 -38.122938 3.350000
9503 2 14.589903 -38.836840 3.350000
9504 2 15.436964 -36.004841 3.350000
9505 2 15.840049 -36.718743 3.350000
9506 2 16.687110 -33.886744 3.350000
9507 2 17.090195 -34.600646 3.350000
9508 2 17.937256 -31.768646 3.350000
9509 2 18.340340 -32.482548 3.350000
9510 2 19.187401 -29.650549 3.350000
9511 2 19.590486 -30.364451 3.350000
9512 2 20.437547 -27.532452 3.350000
9513 2 20.840631 -28.246354 3.350000
9514 2 21.687693 -25.414355 3.350000
9515 2 22.090777 -26.128257 3.350000
9516 2 22.937838 -23.296257 3.350000
9517 2 23.340923 -24.010160 3.350000
9518 2 24.187984 -21.178160 3.350000
9519 2 24.591068 -21.892062 3.350000
9520 2 25.438130 -19.060063 3.350000
9521 2 25.841214 -19.773965 3.350000
9522 2 26.688275 -16.941966 3.350000
9523 2 27.091360 -17.655868 3.350000
9524 2 27.938421 -14.823868 3.350000
9525 2 28.341505 -15.537771 3.350000
9526 2 29.188566 -12.705771 3.350000
9527 2 29.591651 -13.419673 3.350000
9528 2 30.438712 -10.587674 3.350000
9529 2 30.841796 -11.301576 3.350000
9530 2 31.688858 -8.469577 3.350000
9531 2 32.091942 -9.183479 3.350000
9532 2 32.939003 -6.351480 3.350000
9533 2 33.342088 -7.065382 3.350000
9534 2 34.189149 -4.233382 3.350000
9535 2 34.592233 -4.947284 3.350000
9536 2 35.439295 -2.115285 3.350000
9537 2 35.842379 -2.829187 3.350000
9538 2 36.689440 0.002812 3.350000
9539 2 37.092525 -0.711090 3.350000
9540 2 37.939586 2.120909 3.350000
9541 2 38.342670 1.407007 3.350000
9542 2 39.189732 4.239007 3.350000
9543 2 39.592816 3.525105 3.350000
9544 2 40.439877 6.357104 3.350000
9545 2 40.842962 5.643202 3.350000
9546 2 41.690023 8.475201 3.350000
9547 2 42.093107 7.761299 3.350000
9548 2 42.940168 10.593298 3.350000
9549 2 43.343253 9.879396 3.350000
9550 2 44.190314 12.711396 3.350000
9551 2 44.593398 11.997493 3.350000
9552 2 45.440460 14.829493 3.350000
9553 2 45.843544 14.115591 3.350000
9554 2 46.690605 16.947590 3.350000
9555 2 47.093690 16.233688 3.350000
9556 2 47.940751 19.065687 3.350000
9557 2 48.343835 18.351785 3.350000
9558 2 49.190897 21.183785 3.350000
9559 2 49.593981 20.469882 3.350000
9560 2 50.441042 23.301882 3.350000
9561 2 50.844127 22.587980 3.350000
9562 2 51.691188 25.419979 3.350000
9563 2 52.094272 24.706077 3.350000
9564 2 52.941333 27.538076 3.350000
9565 2 53.344418 26.824174 3.350000
9566 2 54.191479 29.656173 3.350000
9567 2 54.594564 28.942271 3.350000
9568 2 55.441625 31.774271 3.350000
9569 2 55.844709 31.060369 3.350000
9570 2 56.691770 33.892368 3.350000
9571 2 57.094855 33.178466 3.350000
9572 2 57.941916 36.010465 3.350000
9573 2 58.345000 35.296563 3.350000
9574 2 59.192062 38.128562 3.350000
9575 2 59.595146 37.414660 3.350000
9576 2 60.442207 40.246660 3.350000
9577 2 60.845292 39.532757 3.350000
9578 2 61.692353 42.364757 3.350000
9579 2 62.095437 41.650855 3.350000
9580 2 5.394907 -57.209422 3.350000
9581 2 5.797991 -57.923325 3.350000
9582 2 6.645053 -55.091325 3.350000
9583 2 7.048137 -55.805227 3.350000
9584 2 7.895198 -52.973228 3.350000
9585 2 8.298283 -53.687130 3.350000
9586 2 9.145344 -50.855131 3.350000
9587 2 9.548428 -51.569033 3.350000
9588 2 10.395490 -48.737033 3.350000
9589 2 10.798574 -49.450936 3.350000
9590 2 11.645635 -46.618936 3.350000
9591 2 12.048720 -47.332838 3.350000
9592 2 12.895781 -44.500839 3.350000
9593 2 13.298865 -45.214741 3.350000
9594 2 14.145926 -42.382742 3.350000
9595 2 14.549011 -43.096644 3.350000
9596 2 15.396072 -40.264645 3.350000
9597 2 15.799156 -40.978547 3.350000
9598 2 16.646218 -38.146547 3.350000
9599 2 17.049302 -38.860449 3.350000
9600 2 17.896363 -36.028450 3.350000
9601 2 18.299448 -36.742352 3.350000
9602 2 19.146509 -33.910353 3.350000
9603 2 19.549593 -34.624255 3.350000
9604 2 20.396655 -31.792256 3.350000
9605 2 20.799739 -32.506158 3.350000
9606 2 21.646800 -29.674158 3.350000
9607 2 22.049885 -30.388061 3.350000
9608 2 22.896946 -27.556061 3.350000
9609 2 23.300030 -28.269963 3.350000
9610 2 24.147091 -25.437964 3.350000
9611 2 24.550176 -26.151866 3.350000
9612 2 25.397237 -23.319867 3.350000
9613 2 25.800322 -24.033769 3.350000
9614 2 26.647383 -21.201769 3.350000
9615 2 27.050467 -21.915672 3.350000
9616 2 27.897528 -19.083672 3.350000
9617 2 28.300613 -19.797574 3.350000
9618 2 29.147674 -16.965575 3.350000
9619 2 29.550758 -17.679477 3.350000
9620 2 30.397820 -14.847478 3.350000
9621 2 30.800904 -15.561380 3.350000
9622 2 31.647965 -12.729380 3.350000
9623 2 32.051050 -13.443283 3.350000
9624 2 32.898111 -10.611283 3.350000
9625 2 33.301195 -11.325185 3.350000
9626 2 34.148257 -8.493186 3.350000
9627 2 34.551341 -9.207088 3.350000
9628 2 35.398402 -6.375089 3.350000
9629 2 35.801487 -7.088991 3.350000
9630 2 36.648548 -4.256992 3.350000
9631 2 37.051632 -4.970894 3.350000
9632 2 37.898693 -2.138894 3.350000
9633 2 38.301778 -2.852796 3.350000
9634 2 39.148839 -0.020797 3.350000
9635 2 39.551923 -0.734699 3.350000
9636 2 40.398985 2.097300 3.350000
9637 2 40.802069 1.383398 3.350000
9638 2 41.649130 4.215397 3.350000
9639 2 42.052215 3.501495 3.350000
9640 2 42.899276 6.333495 3.350000
9641 2 43.302360 5.619592 3.350000
9642 2 44.149422 8.451592 3.350000
9643 2 44.552506 7.737690 3.350000
9644 2 45.399567 10.569689 3.350000
9645 2 45.802652 9.855787 3.350000
9646 2 46.649713 12.687786 3.350000
9647 2 47.052797 11.973884 3.350000
9648 2 47.899859 14.805884 3.350000
9649 2 48.302943 14.091981 3.350000
9650 2 49.150004 16.923981 3.350000
9651 2 49.553089 16.210079 3.350000
9652 2 50.400150 19.042078 3.350000
9653 2 50.803234 18.328176 3.350000
9654 2 51.650295 21.160175 3.350000
9655 2 52.053380 20.446273 3.350000
9656 2 52.900441 23.278273 3.350000
9657 2 53.303525 22.564370 3.350000
9658 2 54.150587 25.396370 3.350000
9659 2 54.553671 24.682468 3.350000
9660 2 55.400732 27.514467 3.350000
9661 2 55.803817 26.800565 3.350000
9662 2 56.650878 29.632564 3.350000
9663 2 57.053962 28.918662 3.350000
9664 2 57.901024 31.750661 3.350000
9665 2 58.304108 31.036759 3.350000
9666 2 59.151169 33.868759 3.350000
9667 2 59.554254 33.154857 3.350000
9668 2 60.401315 35.986856 3.350000
9669 2 60.804399 35.272954 3.350000
9670 2 61.651460 38.104953 3.350000
9671 2 62.054545 37.391051 3.350000
9672 2 62.901606 40.223050 3.350000
9673 2 63.304690 39.509148 3.350000
9674 2 64.151752 42.341148 3.350000
9675 2 64.554836 41.627245 3.350000
9676 2 7.854306 -57.233032 3.350000
9677 2 8.257390 -57.946934 3.350000
9678 2 9.104451 -55.114934 3.350000
9679 2 9.507536 -55.828837 3.350000
9680 2 10.354597 -52.996837 3.350000
9681 2 10.757681 -53.710739 3.350000
9682 2 11.604743 -50.878740 3.350000
9683 2 12.007827 -51.592642 3.350000
9684 2 12.854888 -48.760643 3.350000
9685 2 13.257973 -49.474545 3.350000
9686 2 14.105034 -46.642545 3.350000
9687 2 14.508118 -47.356448 3.350000
9688 2 15.355180 -44.524448 3.350000
9689 2 15.758264 -45.238350 3.350000
9690 2 16.605325 -42.406351 3.350000
9691 2 17.008410 -43.120253 3.350000
9692 2 17.855471 -40.288254 3.350000
9693 2 18.258555 -41.002156 3.350000
9694 2 19.105617 -38.170157 3.350000
9695 2 19.508701 -38.884059 3.350000
9696 2 20.355762 -36.052059 3.350000
9697 2 20.758847 -36.765961 3.350000
9698 2 21.605908 -33.933962 3.350000
9699 2 22.008992 -34.647864 3.350000
9700 2 22.856053 -31.815865 3.350000
9701 2 23.259138 -32.529767 3.350000
9702 2 24.106199 -29.697768 3.350000
9703 2 24.509283 -30.411670 3.350000
9704 2 25.356345 -27.579670 3.350000
9705 2 25.759429 -28.293573 3.350000
9706 2 26.606490 -25.461573 3.350000
9707 2 27.009575 -26.175475 3.350000
9708 2 27.856636 -23.343476 3.350000
9709 2 28.259720 -24.057378 3.350000
9710 2 29.106782 -21.225379 3.350000
9711 2 29.509866 -21.939281 3.350000
9712 2 30.356927 -19.107281 3.350000
9713 2 30.760012 -19.821184 3.350000
9714 2 31.607073 -16.989184 3.350000
9715 2 32.010157 -17.703086 3.350000
9716 2 32.857218 -14.871087 3.350000
9717 2 33.260303 -15.584989 3.350000
9718 2 34.107364 -12.752990 3.350000
9719 2 34.510449 -13.466892 3.350000
9720 2 35.357510 -10.634892 3.350000
9721 2 35.760594 -11.348795 3.350000
9722 2 36.607655 -8.516795 3.350000
9723 2 37.010740 -9.230697 3.350000
9724 2 37.857801 -6.398698 3.350000
9725 2 38.260885 -7.112600 3.350000
9726 2 39.107947 -4.280601 3.350000
9727 2 39.511031 -4.994503 3.350000
9728 2 40.358092 -2.162504 3.350000
9729 2 40.761177 -2.876406 3.350000
9730 2 41.608238 -0.044406 3.350000
9731 2 42.011322 -0.758308 3.350000
9732 2 42.858384 2.073691 3.350000
9733 2 43.261468 1.359789 3.350000
9734 2 44.108529 4.191788 3.350000
9735 2 44.511614 3.477886 3.350000
9736 2 45.358675 6.309885 3.350000
9737 2 45.761759 5.595983 3.350000
9738 2 46.608820 8.427983 3.350000
9739 2 47.011905 7.714080 3.350000
9740 2 47.858966 10.546080 3.350000
9741 2 48.262050 9.832178 3.350000
9742 2 49.109112 12.664177 3.350000
9743 2 49.512196 11.950275 3.350000
9744 2 50.359257 14.782274 3.350000
9745 2 50.762342 14.068372 3.350000
9746 2 51.609403 16.900372 3.350000
9747 2 52.012487 16.186469 3.350000
9748 2 52.859549 19.018469 3.350000
9749 2 53.262633 18.304567 3.350000
9750 2 54.109694 21.136566 3.350000
9751 2 54.512779 20.422664 3.350000
9752 2 55.359840 23.254663 3.350000
9753 2 55.762924 22.540761 3.350000
9754 2 56.609985 25.372760 3.350000
9755 2 57.013070 24.658858 3.350000
9756 2 57.860131 27.490858 3.350000
9757 2 58.263216 26.776956 3.350000
9758 2 59.110277 29.608955 3.350000
9759 2 59.513361 28.895053 3.350000
9760 2 60.360422 31.727052 3.350000
9761 2 60.763507 31.013150 3.350000
9762 2 61.610568 33.845149 3.350000
9763 2 62.013652 33.131247 3.350000
9764 2 62.860714 35.963247 3.350000
9765 2 63.263798 35.249345 3.350000
9766 2 64.110859 38.081344 3.350000
9767 2 64.513944 37.367442 3.350000
9768 2 65.361005 40.199441 3.350000
9769 2 65.764089 39.485539 3.350000
9770 2 10.313705 -57.256641 3.350000
9771 2 10.716789 -57.970543 3.350000
9772 2 11.563850 -55.138544 3.350000
9773 2 11.966935 -55.852446 3.350000
9774 2 12.813996 -53.020446 3.350000
9775 2 13.217080 -53.734349 3.350000
9776 2 14.064142 -50.902349 3.350000
9777 2 14.467226 -51.616251 3.350000
9778 2 15.314287 -48.784252 3.350000
9779 2 15.717372 -49.498154 3.350000
9780 2 16.564433 -46.666155 3.350000
9781 2 16.967517 -47.380057 3.350000
9782 2 17.814578 -44.548058 3.350000
9783 2 18.217663 -45.261960 3.350000
9784 2 19.064724 -42.429960 3.350000
9785 2 19.467808 -43.143862 3.350000
9786 2 20.314870 -40.311863 3.350000
9787 2 20.717954 -41.025765 3.350000
9788 2 21.565015 -38.193766 3.350000
9789 2 21.968100 -38.907668 3.350000
9790 2 22.815161 -36.075669 3.350000
9791 2 23.218245 -36.789571 3.350000
9792 2 24.065307 -33.957571 3.350000
9793 2 24.468391 -34.671474 3.350000
9794 2 25.315452 -31.839474 3.350000
9795 2 25.718537 -32.553376 3.350000
9796 2 26.565598 -29.721377 3.350000
9797 2 26.968682 -30.435279 3.350000
9798 2 27.815744 -27.603280 3.350000
9799 2 28.218828 -28.317182 3.350000
9800 2 29.065889 -25.485182 3.350000
9801 2 29.468974 -26.199085 3.350000
9802 2 30.316035 -23.367085 3.350000
9803 2 30.719119 -24.080987 3.350000
9804 2 31.566180 -21.248988 3.350000
9805 2 31.969265 -21.962890 3.350000
9806 2 32.816326 -19.130891 3.350000
9807 2 33.219410 -19.844793 3.350000
9808 2 34.066472 -17.012793 3.350000
9809 2 34.469556 -17.726696 3.350000
9810 2 35.316617 -14.894696 3.350000
9811 2 35.719702 -15.608598 3.350000
9812 2 36.566763 -12.776599 3.350000
9813 2 36.969847 -13.490501 3.350000
9814 2 37.816909 -10.658502 3.350000
9815 2 38.219993 -11.372404 3.350000
9816 2 39.067054 -8.540405 3.350000
9817 2 39.470139 -9.254307 3.350000
9818 2 40.317200 -6.422307 3.350000
9819 2 40.720284 -7.136209 3.350000
9820 2 41.567345 -4.304210 3.350000
9821 2 41.970430 -5.018112 3.350000
9822 2 42.817491 -2.186113 3.350000
9823 2 43.220575 -2.900015 3.350000
9824 2 44.067637 -0.068016 3.350000
9825 2 44.470721 -0.781918 3.350000
9826 2 45.317782 2.050082 3.350000
9827 2 45.720867 1.336179 3.350000
9828 2 46.567928 4.168179 3.350000
9829 2 46.971012 3.454277 3.350000
9830 2 47.818074 6.286276 3.350000
9831 2 48.221158 5.572374 3.350000
9832 2 49.068219 8.404373 3.350000
9833 2 49.471304 7.690471 3.350000
9834 2 50.318365 10.522471 3.350000
9835 2 50.721449 9.808568 3.350000
9836 2 51.568511 12.640568 3.350000
9837 2 51.971595 11.926666 3.350000
9838 2 52.818656 14.758665 3.350000
9839 2 53.221741 14.044763 3.350000
9840 2 54.068802 16.876762 3.350000
9841 2 54.471886 16.162860 3.350000
9842 2 55.318947 18.994860 3.350000
9843 2 55.722032 18.280957 3.350000
9844 2 56.569093 21.112957 3.350000
9845 2 56.972177 20.399055 3.350000
9846 2 57.819239 23.231054 3.350000
9847 2 58.222323 22.517152 3.350000
9848 2 59.069384 25.349151 3.350000
9849 2 59.472469 24.635249 3.350000
9850 2 60.319530 27.467248 3.350000
9851 2 60.722614 26.753346 3.350000
9852 2 61.569676 29.585346 3.350000
9853 2 61.972760 28.871444 3.350000
9854 2 62.819821 31.703443 3.350000
9855 2 63.222906 30.989541 3.350000
9856 2 64.069967 33.821540 3.350000
9857 2 64.473051 33.107638 3.350000
9858 2 65.320112 35.939637 3.350000
9859 2 65.723197 35.225735 3.350000
9860 2 66.570258 38.057735 3.350000
9861 2 66.973343 37.343832 3.350000
9862 2 12.773103 -57.280250 3.350000
9863 2 13.176188 -57.994152 3.350000
9864 2 14.023249 -55.162153 3.350000
9865 2 14.426334 -55.876055 3.350000
9866 2 15.273395 -53.044056 3.350000
9867 2 15.676479 -53.757958 3.350000
9868 2 16.523540 -50.925958 3.350000
9869 2 16.926625 -51.639861 3.350000
9870 2 17.773686 -48.807861 3.350000
9871 2 18.176770 -49.521763 3.350000
9872 2 19.023832 -46.689764 3.350000
9873 2 19.426916 -47.403666 3.350000
9874 2 20.273977 -44.571667 3.350000
9875 2 20.677062 -45.285569 3.350000
9876 2 21.524123 -42.453570 3.350000
9877 2 21.927207 -43.167472 3.350000
9878 2 22.774269 -40.335472 3.350000
9879 2 23.177353 -41.049374 3.350000
9880 2 24.024414 -38.217375 3.350000
9881 2 24.427499 -38.931277 3.350000
9882 2 25.274560 -36.099278 3.350000
9883 2 25.677644 -36.813180 3.350000
9884 2 26.524705 -33.981181 3.350000
9885 2 26.927790 -34.695083 3.350000
9886 2 27.774851 -31.863083 3.350000
9887 2 28.177935 -32.576986 3.350000
9888 2 29.024997 -29.744986 3.350000
9889 2 29.428081 -30.458888 3.350000
9890 2 30.275142 -27.626889 3.350000
9891 2 30.678227 -28.340791 3.350000
9892 2 31.525288 -25.508792 3.350000
9893 2 31.928372 -26.222694 3.350000
9894 2 32.775434 -23.390694 3.350000
9895 2 33.178518 -24.104597 3.350000
9896 2 34.025579 -21.272597 3.350000
9897 2 34.428664 -21.986499 3.350000
9898 2 35.275725 -19.154500 3.350000
9899 2 35.678809 -19.868402 3.350000
9900 2 36.525870 -17.036403 3.350000
9901 2 36.928955 -17.750305 3.350000
9902 2 37.776016 -14.918305 3.350000
9903 2 38.179101 -15.632208 3.350000
9904 2 39.026162 -12.800208 3.350000
9905 2 39.429246 -13.514110 3.350000
9906 2 40.276307 -10.682111 3.350000
9907 2 40.679392 -11.396013 3.350000
9908 2 41.526453 -8.564014 3.350000
9909 2 41.929537 -9.277916 3.350000
9910 2 42.776599 -6.445917 3.350000
9911 2 43.179683 -7.159819 3.350000
9912 2 44.026744 -4.327819 3.350000
9913 2 44.429829 -5.041721 3.350000
9914 2 45.276890 -2.209722 3.350000
9915 2 45.679974 -2.923624 3.350000
9916 2 46.527036 -0.091625 3.350000
9917 2 46.930120 -0.805527 3.350000
9918 2 47.777181 2.026472 3.350000
9919 2 48.180266 1.312570 3.350000
9920 2 49.027327 4.144570 3.350000
9921 2 49.430411 3.430667 3.350000
9922 2 50.277472 6.262667 3.350000
9923 2 50.680557 5.548765 3.350000
9924 2 51.527618 8.380764 3.350000
9925 2 51.930702 7.666862 3.350000
9926 2 52.777764 10.498861 3.350000
9927 2 53.180848 9.784959 3.350000
9928 2 54.027909 12.616959 3.350000
9929 2 54.430994 11.903056 3.350000
9930 2 55.278055 14.735056 3.350000
9931 2 55.681139 14.021154 3.350000
9932 2 56.528201 16.853153 3.350000
9933 2 56.931285 16.139251 3.350000
9934 2 57.778346 18.971250 3.350000
9935 2 58.181431 18.257348 3.350000
9936 2 59.028492 21.089348 3.350000
9937 2 59.431576 20.375445 3.350000
9938 2 60.278638 23.207445 3.350000
9939 2 60.681722 22.493543 3.350000
9940 2 61.528783 25.325542 3.350000
9941 2 61.931868 24.611640 3.350000
9942 2 62.778929 27.443639 3.350000
9943 2 63.182013 26.729737 3.350000
9944 2 64.029074 29.561736 3.350000
9945 2 64.432159 28.847834 3.350000
9946 2 65.279220 31.679834 3.350000
9947 2 65.682304 30.965932 3.350000
9948 2 66.529366 33.797931 3.350000
9949 2 66.932450 33.084029 3.350000
9950 2 67.779511 35.916028 3.350000
9951 2 68.182596 35.202126 3.350000
9952 2 15.232502 -57.303859 3.350000
9953 2 15.635587 -58.017762 3.350000
9954 2 16.482648 -55.185762 3.350000
9955 2 16.885732 -55.899664 3.350000
9956 2 17.732794 -53.067665 3.350000
9957 2 18.135878 -53.781567 3.350000
9958 2 18.982939 -50.949568 3.350000
9959 2 19.386024 -51.663470 3.350000
9960 2 20.233085 -48.831471 3.350000
9961 2 20.636169 -49.545373 3.350000
9962 2 21.483230 -46.713373 3.350000
9963 2 21.886315 -47.427275 3.350000
9964 2 22.733376 -44.595276 3.350000
9965 2 23.136460 -45.309178 3.350000
9966 2 23.983522 -42.477179 3.350000
9967 2 24.386606 -43.191081 3.350000
9968 2 25.233667 -40.359082 3.350000
9969 2 25.636752 -41.072984 3.350000
9970 2 26.483813 -38.240984 3.350000
9971 2 26.886897 -38.954886 3.350000
9972 2 27.733959 -36.122887 3.350000
9973 2 28.137043 -36.836789 3.350000
9974 2 28.984104 -34.004790 3.350000
9975 2 29.387189 -34.718692 3.350000
9976 2 30.234250 -31.886693 3.350000
9977 2 30.637334 -32.600595 3.350000
9978 2 31.484396 -29.768595 3.350000
9979 2 31.887480 -30.482498 3.350000
9980 2 32.734541 -27.650498 3.350000
9981 2 33.137626 -28.364400 3.350000
9982 2 33.984687 -25.532401 3.350000
9983 2 34.387771 -26.246303 3.350000
9984 2 35.234832 -23.414304 3.350000
9985 2 35.637917 -24.128206 3.350000
9986 2 36.484978 -21.296206 3.350000
9987 2 36.888062 -22.010109 3.350000
9988 2 37.735124 -19.178109 3.350000
9989 2 38.138208 -19.892011 3.350000
9990 2 38.985269 -17.060012 3.350000
9991 2 39.388354 -17.773914 3.350000
9992 2 40.235415 -14.941915 3.350000
9993 2 40.638499 -15.655817 3.350000
9994 2 41.485561 -12.823818 3.350000
9995 2 41.888645 -13.537720 3.350000
9996 2 42.735706 -10.705720 3.350000
9997 2 43.138791 -11.419622 3.350000
9998 2 43.985852 -8.587623 3.350000
9999 2 44.388936 -9.301525 3.350000
10000 2 45.235997 -6.469526 3.350000
10001 2 45.639082 -7.183428 3.350000
10002 2 46.486143 -4.351429 3.350000
10003 2 46.889228 -5.065331 3.350000
10004 2 47.736289 -2.233331 3.350000
10005 2 48.139373 -2.947233 3.350000
10006 2 48.986434 -0.115234 3.350000
10007 2 49.389519 -0.829136 3.350000
10008 2 50.236580 2.002863 3.350000
10009 2 50.639664 1.288961 3.350000
10010 2 51.486726 4.120960 3.350000
10011 2 51.889810 3.407058 3.350000
10012 2 52.736871 6.239058 3.350000
10013 2 53.139956 5.525155 3.350000
10014 2 53.987017 8.357155 3.350000
10015 2 54.390101 7.643253 3.350000
10016 2 55.237163 10.475252 3.350000
10017 2 55.640247 9.761350 3.350000
10018 2 56.487308 12.593349 3.350000
10019 2 56.890393 11.879447 3.350000
10020 2 57.737454 14.711447 3.350000
10021 2 58.140538 13.997544 3.350000
10022 2 58.987599 16.829544 3.350000
10023 2 59.390684 16.115642 3.350000
10024 2 60.237745 18.947641 3.350000
10025 2 60.640829 18.233739 3.350000
10026 2 61.487891 21.065738 3.350000
10027 2 61.890975 20.351836 3.350000
10028 2 62.738036 23.183835 3.350000
10029 2 63.141121 22.469933 3.350000
10030 2 63.988182 25.301933 3.350000
10031 2 64.391266 24.588031 3.350000
10032 2 65.238328 27.420030 3.350000
10033 2 65.641412 26.706128 3.350000
10034 2 66.488473 29.538127 3.350000
10035 2 66.891558 28.824225 3.350000
10036 2 67.738619 31.656224 3.350000
10037 2 68.141703 30.942322 3.350000
10038 2 68.988765 33.774322 3.350000
10039 2 69.391849 33.060419 3.350000
10040 2 17.691901 -57.327469 3.350000
10041 2 18.094986 -58.041371 3.350000
10042 2 18.942047 -55.209371 3.350000
10043 2 19.345131 -55.923274 3.350000
10044 2 20.192192 -53.091274 3.350000
10045 2 20.595277 -53.805176 3.350000
10046 2 21.442338 -50.973177 3.350000
10047 2 21.845422 -51.687079 3.350000
10048 2 22.692484 -48.855080 3.350000
10049 2 23.095568 -49.568982 3.350000
10050 2 23.942629 -46.736983 3.350000
10051 2 24.345714 -47.450885 3.350000
10052 2 25.192775 -44.618885 3.350000
10053 2 25.595859 -45.332787 3.350000
10054 2 26.442921 -42.500788 3.350000
10055 2 26.846005 -43.214690 3.350000
10056 2 27.693066 -40.382691 3.350000
10057 2 28.096151 -41.096593 3.350000
10058 2 28.943212 -38.264594 3.350000
10059 2 29.346296 -38.978496 3.350000
10060 2 30.193357 -36.146496 3.350000
10061 2 30.596442 -36.860399 3.350000
10062 2 31.443503 -34.028399 3.350000
10063 2 31.846587 -34.742301 3.350000
10064 2 32.693649 -31.910302 3.350000
10065 2 33.096733 -32.624204 3.350000
10066 2 33.943794 -29.792205 3.350000
10067 2 34.346879 -30.506107 3.350000
10068 2 35.193940 -27.674107 3.350000
10069 2 35.597024 -28.388010 3.350000
10070 2 36.444086 -25.556010 3.350000
10071 2 36.847170 -26.269912 3.350000
10072 2 37.694231 -23.437913 3.350000
10073 2 38.097316 -24.151815 3.350000
10074 2 38.944377 -21.319816 3.350000
10075 2 39.347461 -22.033718 3.350000
10076 2 40.194523 -19.201718 3.350000
10077 2 40.597607 -19.915621 3.350000
10078 2 41.444668 -17.083621 3.350000
10079 2 41.847753 -17.797523 3.350000
10080 2 42.694814 -14.965524 3.350000
10081 2 43.097898 -15.679426 3.350000
10082 2 43.944959 -12.847427 3.350000
10083 2 44.348044 -13.561329 3.350000
10084 2 45.195105 -10.729330 3.350000
10085 2 45.598189 -11.443232 3.350000
10086 2 46.445251 -8.611232 3.350000
10087 2 46.848335 -9.325134 3.350000
10088 2 47.695396 -6.493135 3.350000
10089 2 48.098481 -7.207037 3.350000
10090 2 48.945542 -4.375038 3.350000
10091 2 49.348626 -5.088940 3.350000
10092 2 50.195688 -2.256941 3.350000
10093 2 50.598772 -2.970843 3.350000
10094 2 51.445833 -0.138843 3.350000
10095 2 51.848918 -0.852746 3.350000
10096 2 52.695979 1.979254 3.350000
10097 2 53.099063 1.265352 3.350000
10098 2 53.946124 4.097351 3.350000
10099 2 54.349209 3.383449 3.350000
10100 2 55.196270 6.215448 3.350000
10101 2 55.599355 5.501546 3.350000
10102 2 56.446416 8.333546 3.350000
10103 2 56.849500 7.619643 3.350000
10104 2 57.696561 10.451643 3.350000
10105 2 58.099646 9.737741 3.350000
10106 2 58.946707 12.569740 3.350000
10107 2 59.349791 11.855838 3.350000
10108 2 60.196853 14.687837 3.350000
10109 2 60.599937 13.973935 3.350000
10110 2 61.446998 16.805935 3.350000
10111 2 61.850083 16.092032 3.350000
10112 2 62.697144 18.924032 3.350000
10113 2 63.100228 18.210130 3.350000
10114 2 63.947290 21.042129 3.350000
10115 2 64.350374 20.328227 3.350000
10116 2 65.197435 23.160226 3.350000
10117 2 65.600520 22.446324 3.350000
10118 2 66.447581 25.278323 3.350000
10119 2 66.850665 24.564421 3.350000
10120 2 67.697726 27.396421 3.350000
10121 2 68.100811 26.682519 3.350000
10122 2 68.947872 29.514518 3.350000
10123 2 69.350956 28.800616 3.350000
10124 2 20.151300 -57.351078 3.350000
10125 2 20.554384 -58.064980 3.350000
10126 2 21.401446 -55.232981 3.350000
10127 2 21.804530 -55.946883 3.350000
10128 2 22.651591 -53.114883 3.350000
10129 2 23.054676 -53.828786 3.350000
10130 2 23.901737 -50.996786 3.350000
10131 2 24.304821 -51.710688 3.350000
10132 2 25.151882 -48.878689 3.350000
10133 2 25.554967 -49.592591 3.350000
10134 2 26.402028 -46.760592 3.350000
10135 2 26.805113 -47.474494 3.350000
10136 2 27.652174 -44.642495 3.350000
10137 2 28.055258 -45.356397 3.350000
10138 2 28.902319 -42.524397 3.350000
10139 2 29.305404 -43.238299 3.350000
10140 2 30.152465 -40.406300 3.350000
10141 2 30.555549 -41.120202 3.350000
10142 2 31.402611 -38.288203 3.350000
10143 2 31.805695 -39.002105 3.350000
10144 2 32.652756 -36.170106 3.350000
10145 2 33.055841 -36.884008 3.350000
10146 2 33.902902 -34.052008 3.350000
10147 2 34.305986 -34.765911 3.350000
10148 2 35.153048 -31.933911 3.350000
10149 2 35.556132 -32.647813 3.350000
10150 2 36.403193 -29.815814 3.350000
10151 2 36.806278 -30.529716 3.350000
10152 2 37.653339 -27.697717 3.350000
10153 2 38.056423 -28.411619 3.350000
10154 2 38.903484 -25.579619 3.350000
10155 2 39.306569 -26.293522 3.350000
10156 2 40.153630 -23.461522 3.350000
10157 2 40.556714 -24.175424 3.350000
10158 2 41.403776 -21.343425 3.350000
10159 2 41.806860 -22.057327 3.350000
10160 2 42.653921 -19.225328 3.350000
10161 2 43.057006 -19.939230 3.350000
10162 2 43.904067 -17.107230 3.350000
10163 2 44.307151 -17.821133 3.350000
10164 2 45.154213 -14.989133 3.350000
10165 2 45.557297 -15.703035 3.350000
10166 2 46.404358 -12.871036 3.350000
10167 2 46.807443 -13.584938 3.350000
10168 2 47.654504 -10.752939 3.350000
10169 2 48.057588 -11.466841 3.350000
10170 2 48.904650 -8.634842 3.350000
10171 2 49.307734 -9.348744 3.350000
10172 2 50.154795 -6.516744 3.350000
10173 2 50.557880 -7.230646 3.350000
10174 2 51.404941 -4.398647 3.350000
10175 2 51.808025 -5.112549 3.350000
10176 2 52.655086 -2.280550 3.350000
10177 2 53.058171 -2.994452 3.350000
10178 2 53.905232 -0.162453 3.350000
10179 2 54.308316 -0.876355 3.350000
10180 2 55.155378 1.955645 3.350000
10181 2 55.558462 1.241742 3.350000
10182 2 56.405523 4.073742 3.350000
10183 2 56.808608 3.359840 3.350000
10184 2 57.655669 6.191839 3.350000
10185 2 58.058753 5.477937 3.350000
10186 2 58.905815 8.309936 3.350000
10187 2 59.308899 7.596034 3.350000
10188 2 60.155960 10.428034 3.350000
10189 2 60.559045 9.714131 3.350000
10190 2 61.406106 12.546131 3.350000
10191 2 61.809190 11.832229 3.350000
10192 2 62.656251 14.664228 3.350000
10193 2 63.059336 13.950326 3.350000
10194 2 63.906397 16.782325 3.350000
10195 2 64.309482 16.068423 3.350000
10196 2 65.156543 18.900422 3.350000
10197 2 65.559627 18.186520 3.350000
10198 2 66.406688 21.018520 3.350000
10199 2 66.809773 20.304618 3.350000
10200 2 67.656834 23.136617 3.350000
10201 2 68.059918 22.422715 3.350000
10202 2 68.906980 25.254714 3.350000
10203 2 69.310064 24.540812 3.350000
10204 2 70.157125 27.372811 3.350000
10205 2 70.560210 26.658909 3.350000
10206 2 22.610699 -57.374687 3.350000
10207 2 23.013783 -58.088589 3.350000
10208 2 23.860844 -55.256590 3.350000
10209 2 24.263929 -55.970492 3.350000
10210 2 25.110990 -53.138493 3.350000
10211 2 25.514074 -53.852395 3.350000
10212 2 26.361136 -51.020396 3.350000
10213 2 26.764220 -51.734298 3.350000
10214 2 27.611281 -48.902298 3.350000
10215 2 28.014366 -49.616200 3.350000
10216 2 28.861427 -46.784201 3.350000
10217 2 29.264511 -47.498103 3.350000
10218 2 30.111573 -44.666104 3.350000
10219 2 30.514657 -45.380006 3.350000
10220 2 31.361718 -42.548007 3.350000
10221 2 31.764803 -43.261909 3.350000
10222 2 32.611864 -40.429909 3.350000
10223 2 33.014948 -41.143812 3.350000
10224 2 33.862009 -38.311812 3.350000
10225 2 34.265094 -39.025714 3.350000
10226 2 35.112155 -36.193715 3.350000
10227 2 35.515240 -36.907617 3.350000
10228 2 36.362301 -34.075618 3.350000
10229 2 36.765385 -34.789520 3.350000
10230 2 37.612446 -31.957520 3.350000
10231 2 38.015531 -32.671423 3.350000
10232 2 38.862592 -29.839423 3.350000
10233 2 39.265676 -30.553325 3.350000
10234 2 40.112738 -27.721326 3.350000
10235 2 40.515822 -28.435228 3.350000
10236 2 41.362883 -25.603229 3.350000
10237 2 41.765968 -26.317131 3.350000
10238 2 42.613029 -23.485131 3.350000
10239 2 43.016113 -24.199034 3.350000
10240 2 43.863175 -21.367034 3.350000
10241 2 44.266259 -22.080936 3.350000
10242 2 45.113320 -19.248937 3.350000
10243 2 45.516405 -19.962839 3.350000
10244 2 46.363466 -17.130840 3.350000
10245 2 46.766550 -17.844742 3.350000
10246 2 47.613611 -15.012743 3.350000
10247 2 48.016696 -15.726645 3.350000
10248 2 48.863757 -12.894645 3.350000
10249 2 49.266841 -13.608547 3.350000
10250 2 50.113903 -10.776548 3.350000
10251 2 50.516987 -11.490450 3.350000
10252 2 51.364048 -8.658451 3.350000
10253 2 51.767133 -9.372353 3.350000
10254 2 52.614194 -6.540354 3.350000
10255 2 53.017278 -7.254256 3.350000
10256 2 53.864340 -4.422256 3.350000
10257 2 54.267424 -5.136159 3.350000
10258 2 55.114485 -2.304159 3.350000
10259 2 55.517570 -3.018061 3.350000
10260 2 56.364631 -0.186062 3.350000
10261 2 56.767715 -0.899964 3.350000
10262 2 57.614777 1.932035 3.350000
10263 2 58.017861 1.218133 3.350000
10264 2 58.864922 4.050133 3.350000
10265 2 59.268007 3.336230 3.350000
10266 2 60.115068 6.168230 3.350000
10267 2 60.518152 5.454328 3.350000
10268 2 61.365213 8.286327 3.350000
10269 2 61.768298 7.572425 3.350000
10270 2 62.615359 10.404424 3.350000
10271 2 63.018443 9.690522 3.350000
10272 2 63.865505 12.522522 3.350000
10273 2 64.268589 11.808619 3.350000
10274 2 65.115650 14.640619 3.350000
10275 2 65.518735 13.926717 3.350000
10276 2 66.365796 16.758716 3.350000
10277 2 66.768880 16.044814 3.350000
10278 2 67.615942 18.876813 3.350000
10279 2 68.019026 18.162911 3.350000
10280 2 68.866087 20.994910 3.350000
10281 2 69.269172 20.281008 3.350000
10282 2 70.116233 23.113008 3.350000
10283 2 70.519317 22.399106 3.350000
10284 2 71.366378 25.231105 3.350000
10285 2 71.769463 24.517203 3.350000
10286 2 25.070098 -57.398296 3.350000
10287 2 25.473182 -58.112199 3.350000
10288 2 26.320243 -55.280199 3.350000
10289 2 26.723328 -55.994101 3.350000
10290 2 27.570389 -53.162102 3.350000
10291 2 27.973473 -53.876004 3.350000
10292 2 28.820535 -51.044005 3.350000
10293 2 29.223619 -51.757907 3.350000
10294 2 30.070680 -48.925908 3.350000
10295 2 30.473765 -49.639810 3.350000
10296 2 31.320826 -46.807810 3.350000
10297 2 31.723910 -47.521712 3.350000
10298 2 32.570971 -44.689713 3.350000
10299 2 32.974056 -45.403615 3.350000
10300 2 33.821117 -42.571616 3.350000
10301 2 34.224201 -43.285518 3.350000
10302 2 35.071263 -40.453519 3.350000
10303 2 35.474347 -41.167421 3.350000
10304 2 36.321408 -38.335421 3.350000
10305 2 36.724493 -39.049324 3.350000
10306 2 37.571554 -36.217324 3.350000
10307 2 37.974638 -36.931226 3.350000
10308 2 38.821700 -34.099227 3.350000
10309 2 39.224784 -34.813129 3.350000
10310 2 40.071845 -31.981130 3.350000
10311 2 40.474930 -32.695032 3.350000
10312 2 41.321991 -29.863032 3.350000
10313 2 41.725075 -30.576935 3.350000
10314 2 42.572136 -27.744935 3.350000
10315 2 42.975221 -28.458837 3.350000
10316 2 43.822282 -25.626838 3.350000
10317 2 44.225367 -26.340740 3.350000
10318 2 45.072428 -23.508741 3.350000
10319 2 45.475512 -24.222643 3.350000
10320 2 46.322573 -21.390643 3.350000
10321 2 46.725658 -22.104546 3.350000
10322 2 47.572719 -19.272546 3.350000
10323 2 47.975803 -19.986448 3.350000
10324 2 48.822865 -17.154449 3.350000
10325 2 49.225949 -17.868351 3.350000
10326 2 50.073010 -15.036352 3.350000
10327 2 50.476095 -15.750254 3.350000
10328 2 51.323156 -12.918255 3.350000
10329 2 51.726240 -13.632157 3.350000
10330 2 52.573302 -10.800157 3.350000
10331 2 52.976386 -11.514059 3.350000
10332 2 53.823447 -8.682060 3.350000
10333 2 54.226532 -9.395962 3.350000
10334 2 55.073593 -6.563963 3.350000
10335 2 55.476677 -7.277865 3.350000
10336 2 56.323738 -4.445866 3.350000
10337 2 56.726823 -5.159768 3.350000
10338 2 57.573884 -2.327768 3.350000
10339 2 57.976968 -3.041671 3.350000
10340 2 58.824030 -0.209671 3.350000
10341 2 59.227114 -0.923573 3.350000
10342 2 60.074175 1.908426 3.350000
10343 2 60.477260 1.194524 3.350000
10344 2 61.324321 4.026523 3.350000
10345 2 61.727405 3.312621 3.350000
10346 2 62.574467 6.144621 3.350000
10347 2 62.977551 5.430718 3.350000
10348 2 63.824612 8.262718 3.350000
10349 2 64.227697 7.548816 3.350000
10350 2 65.074758 10.380815 3.350000
10351 2 65.477842 9.666913 3.350000
10352 2 66.324904 12.498912 3.350000
10353 2 66.727988 11.785010 3.350000
10354 2 67.575049 14.617010 3.350000
10355 2 67.978134 13.903107 3.350000
10356 2 68.825195 16.735107 3.350000
10357 2 69.228279 16.021205 3.350000
10358 2 70.075340 18.853204 3.350000
10359 2 70.478425 18.139302 3.350000
10360 2 71.325486 20.971301 3.350000
10361 2 71.728570 20.257399 3.350000
10362 2 72.575632 23.089398 3.350000
10363 2 72.978716 22.375496 3.350000
10364 2 27.529496 -57.421906 3.350000
10365 2 27.932581 -58.135808 3.350000
10366 2 28.779642 -55.303809 3.350000
10367 2 29.182726 -56.017711 3.350000
10368 2 30.029788 -53.185711 3.350000
10369 2 30.432872 -53.899613 3.350000
10370 2 31.279933 -51.067614 3.350000
10371 2 31.683018 -51.781516 3.350000
10372 2 32.530079 -48.949517 3.350000
10373 2 32.933163 -49.663419 3.350000
10374 2 33.780225 -46.831420 3.350000
10375 2 34.183309 -47.545322 3.350000
10376 2 35.030370 -44.713322 3.350000
10377 2 35.433455 -45.427224 3.350000
10378 2 36.280516 -42.595225 3.350000
10379 2 36.683600 -43.309127 3.350000
10380 2 37.530662 -40.477128 3.350000
10381 2 37.933746 -41.191030 3.350000
10382 2 38.780807 -38.359031 3.350000
10383 2 39.183892 -39.072933 3.350000
10384 2 40.030953 -36.240933 3.350000
10385 2 40.434037 -36.954836 3.350000
10386 2 41.281098 -34.122836 3.350000
10387 2 41.684183 -34.836738 3.350000
10388 2 42.531244 -32.004739 3.350000
10389 2 42.934328 -32.718641 3.350000
10390 2 43.781390 -29.886642 3.350000
10391 2 44.184474 -30.600544 3.350000
10392 2 45.031535 -27.768544 3.350000
10393 2 45.434620 -28.482447 3.350000
10394 2 46.281681 -25.650447 3.350000
10395 2 46.684765 -26.364349 3.350000
10396 2 47.531827 -23.532350 3.350000
10397 2 47.934911 -24.246252 3.350000
10398 2 48.781972 -21.414253 3.350000
10399 2 49.185057 -22.128155 3.350000
10400 2 50.032118 -19.296156 3.350000
10401 2 50.435202 -20.010058 3.350000
10402 2 51.282263 -17.178058 3.350000
10403 2 51.685348 -17.891960 3.350000
10404 2 52.532409 -15.059961 3.350000
10405 2 52.935494 -15.773863 3.350000
10406 2 53.782555 -12.941864 3.350000
10407 2 54.185639 -13.655766 3.350000
10408 2 55.032700 -10.823767 3.350000
10409 2 55.435785 -11.537669 3.350000
10410 2 56.282846 -8.705669 3.350000
10411 2 56.685930 -9.419572 3.350000
10412 2 57.532992 -6.587572 3.350000
10413 2 57.936076 -7.301474 3.350000
10414 2 58.783137 -4.469475 3.350000
10415 2 59.186222 -5.183377 3.350000
10416 2 60.033283 -2.351378 3.350000
10417 2 60.436367 -3.065280 3.350000
10418 2 61.283429 -0.233280 3.350000
10419 2 61.686513 -0.947183 3.350000
10420 2 62.533574 1.884817 3.350000
10421 2 62.936659 1.170915 3.350000
10422 2 63.783720 4.002914 3.350000
10423 2 64.186804 3.289012 3.350000
10424 2 65.033865 6.121011 3.350000
10425 2 65.436950 5.407109 3.350000
10426 2 66.284011 8.239109 3.350000
10427 2 66.687095 7.525206 3.350000
10428 2 67.534157 10.357206 3.350000
10429 2 67.937241 9.643304 3.350000
10430 2 68.784302 12.475303 3.350000
10431 2 69.187387 11.761401 3.350000
10432 2 70.034448 14.593400 3.350000
10433 2 70.437532 13.879498 3.350000
10434 2 71.284594 16.711497 3.350000
10435 2 71.687678 15.997595 3.350000
10436 2 72.534739 18.829595 3.350000
10437 2 72.937824 18.115693 3.350000
10438 2 73.784885 20.947692 3.350000
10439 2 29.988895 -57.445515 3.350000
10440 2 30.391980 -58.159417 3.350000
10441 2 31.239041 -55.327418 3.350000
10442 2 31.642125 -56.041320 3.350000
10443 2 32.489187 -53.209321 3.350000
10444 2 32.892271 -53.923223 3.350000
10445 2 33.739332 -51.091223 3.350000
10446 2 34.142417 -51.805125 3.350000
10447 2 34.989478 -48.973126 3.350000
10448 2 35.392562 -49.687028 3.350000
10449 2 36.239623 -46.855029 3.350000
10450 2 36.642708 -47.568931 3.350000
10451 2 37.489769 -44.736932 3.350000
10452 2 37.892853 -45.450834 3.350000
10453 2 38.739915 -42.618834 3.350000
10454 2 39.142999 -43.332737 3.350000
10455 2 39.990060 -40.500737 3.350000
10456 2 40.393145 -41.214639 3.350000
10457 2 41.240206 -38.382640 3.350000
10458 2 41.643290 -39.096542 3.350000
10459 2 42.490352 -36.264543 3.350000
10460 2 42.893436 -36.978445 3.350000
10461 2 43.740497 -34.146445 3.350000
10462 2 44.143582 -34.860348 3.350000
10463 2 44.990643 -32.028348 3.350000
10464 2 45.393727 -32.742250 3.350000
10465 2 46.240789 -29.910251 3.350000
10466 2 46.643873 -30.624153 3.350000
10467 2 47.490934 -27.792154 3.350000
10468 2 47.894019 -28.506056 3.350000
10469 2 48.741080 -25.674056 3.350000
10470 2 49.144164 -26.387959 3.350000
10471 2 49.991225 -23.555959 3.350000
10472 2 50.394310 -24.269861 3.350000
10473 2 51.241371 -21.437862 3.350000
10474 2 51.644455 -22.151764 3.350000
10475 2 52.491517 -19.319765 3.350000
10476 2 52.894601 -20.033667 3.350000
10477 2 53.741662 -17.201668 3.350000
10478 2 54.144747 -17.915570 3.350000
10479 2 54.991808 -15.083570 3.350000
10480 2 55.394892 -15.797472 3.350000
10481 2 56.241954 -12.965473 3.350000
10482 2 56.645038 -13.679375 3.350000
10483 2 57.492099 -10.847376 3.350000
10484 2 57.895184 -11.561278 3.350000
10485 2 58.742245 -8.729279 3.350000
10486 2 59.145329 -9.443181 3.350000
10487 2 59.992390 -6.611181 3.350000
10488 2 60.395475 -7.325084 3.350000
10489 2 61.242536 -4.493084 3.350000
10490 2 61.645621 -5.206986 3.350000
10491 2 62.492682 -2.374987 3.350000
10492 2 62.895766 -3.088889 3.350000
10493 2 63.742827 -0.256890 3.350000
10494 2 64.145912 -0.970792 3.350000
10495 2 64.992973 1.861208 3.350000
10496 2 65.396057 1.147305 3.350000
10497 2 66.243119 3.979305 3.350000
10498 2 66.646203 3.265403 3.350000
10499 2 67.493264 6.097402 3.350000
10500 2 67.896349 5.383500 3.350000
10501 2 68.743410 8.215499 3.350000
10502 2 69.146494 7.501597 3.350000
10503 2 69.993556 10.333597 3.350000
10504 2 70.396640 9.619694 3.350000
10505 2 71.243701 12.451694 3.350000
10506 2 71.646786 11.737792 3.350000
10507 2 72.493847 14.569791 3.350000
10508 2 72.896931 13.855889 3.350000
10509 2 73.743992 16.687888 3.350000
10510 2 74.147077 15.973986 3.350000
10511 2 32.448294 -57.469124 3.350000
10512 2 32.851379 -58.183026 3.350000
10513 2 33.698440 -55.351027 3.350000
10514 2 34.101524 -56.064929 3.350000
10515 2 34.948585 -53.232930 3.350000
10516 2 35.351670 -53.946832 3.350000
10517 2 36.198731 -51.114833 3.350000
10518 2 36.601815 -51.828735 3.350000
10519 2 37.448877 -48.996735 3.350000
10520 2 37.851961 -49.710637 3.350000
10521 2 38.699022 -46.878638 3.350000
10522 2 39.102107 -47.592540 3.350000
10523 2 39.949168 -44.760541 3.350000
10524 2 40.352252 -45.474443 3.350000
10525 2 41.199314 -42.642444 3.350000
10526 2 41.602398 -43.356346 3.350000
10527 2 42.449459 -40.524346 3.350000
10528 2 42.852544 -41.238249 3.350000
10529 2 43.699605 -38.406249 3.350000
10530 2 44.102689 -39.120151 3.350000
10531 2 44.949750 -36.288152 3.350000
10532 2 45.352835 -37.002054 3.350000
10533 2 46.199896 -34.170055 3.350000
10534 2 46.602980 -34.883957 3.350000
10535 2 47.450042 -32.051957 3.350000
10536 2 47.853126 -32.765860 3.350000
10537 2 48.700187 -29.933860 3.350000
10538 2 49.103272 -30.647762 3.350000
10539 2 49.950333 -27.815763 3.350000
10540 2 50.353417 -28.529665 3.350000
10541 2 51.200479 -25.697666 3.350000
10542 2 51.603563 -26.411568 3.350000
10543 2 52.450624 -23.579568 3.350000
10544 2 52.853709 -24.293471 3.350000
10545 2 53.700770 -21.461471 3.350000
10546 2 54.103854 -22.175373 3.350000
10547 2 54.950916 -19.343374 3.350000
10548 2 55.354000 -20.057276 3.350000
10549 2 56.201061 -17.225277 3.350000
10550 2 56.604146 -17.939179 3.350000
10551 2 57.451207 -15.107180 3.350000
10552 2 57.854291 -15.821082 3.350000
10553 2 58.701352 -12.989082 3.350000
10554 2 59.104437 -13.702984 3.350000
10555 2 59.951498 -10.870985 3.350000
10556 2 60.354582 -11.584887 3.350000
10557 2 61.201644 -8.752888 3.350000
10558 2 61.604728 -9.466790 3.350000
10559 2 62.451789 -6.634791 3.350000
10560 2 62.854874 -7.348693 3.350000
10561 2 63.701935 -4.516693 3.350000
10562 2 64.105019 -5.230596 3.350000
10563 2 64.952081 -2.398596 3.350000
10564 2 65.355165 -3.112498 3.350000
10565 2 66.202226 -0.280499 3.350000
10566 2 66.605311 -0.994401 3.350000
10567 2 67.452372 1.837598 3.350000
10568 2 67.855456 1.123696 3.350000
10569 2 68.702517 3.955696 3.350000
10570 2 69.105602 3.241793 3.350000
10571 2 69.952663 6.073793 3.350000
10572 2 70.355747 5.359891 3.350000
10573 2 71.202809 8.191890 3.350000
10574 2 71.605893 7.477988 3.350000
10575 2 72.452954 10.309987 3.350000
10576 2 72.856039 9.596085 3.350000
10577 2 73.703100 12.428084 3.350000
10578 2 74.106184 11.714182 3.350000
10579 2 74.953246 14.546182 3.350000
10580 2 75.356330 13.832280 3.350000
10581 3 -75.076898 -15.276379 6.700000
10582 3 -74.660183 -15.982412 6.700000
10583 3 -73.867645 -13.134673 6.700000
10584 3 -73.450930 -13.840705 6.700000
10585 3 -72.658392 -10.992966 6.700000
10586 3 -72.241677 -11.698999 6.700000
10587 3 -71.449139 -8.851260 6.700000
10588 3 -71.032424 -9.557292 6.700000
10589 3 -70.239886 -6.709553 6.700000
10590 3 -69.823170 -7.415586 6.700000
10591 3 -69.030632 -4.567847 6.700000
10592 3 -68.613917 -5.273879 6.700000
10593 3 -67.821379 -2.426140 6.700000
10594 3 -67.404664 -3.132173 6.700000
10595 3 -66.612126 -0.284434 6.700000
10596 3 -66.195411 -0.990466 6.700000
10597 3 -65.402873 1.857273 6.700000
10598 3 -64.986158 1.151240 6.700000
10599 3 -64.193620 3.998979 6.700000
10600 3 -63.776904 3.292947 6.700000
10601 3 -62.984366 6.140686 6.700000
10602 3 -62.567651 5.434653 6.700000
10603 3 -61.775113 8.282392 6.700000
10604 3 -61.358398 7.576360 6.700000
10605 3 -60.565860 10.424099 6.700000
10606 3 -60.149145 9.718066 6.700000
10607 3 -59.356607 12.565805 6.700000
10608 3 -58.939892 11.859773 6.700000
10609 3 -58.147354 14.707512 6.700000
10610 3 -57.730638 14.001479 6.700000
10611 3 -56.938100 16.849218 6.700000
10612 3 -56.521385 16.143186 6.700000
10613 3 -55.728847 18.990925 6.700000
10614 3 -55.312132 18.284892 6.700000
10615 3 -54.519594 21.132631 6.700000
10616 3 -54.102879 20.426599 6.700000
10617 3 -53.310341 23.274338 6.700000
10618 3 -52.893626 22.568305 6.700000
10619 3 -52.101088 25.416044 6.700000
10620 3 -51.684372 24.710012 6.700000
10621 3 -50.891834 27.557751 6.700000
10622 3 -50.475119 26.851718 6.700000
10623 3 -49.682581 29.699457 6.700000
10624 3 -49.265866 28.993425 6.700000
10625 3 -48.473328 31.841164 6.700000
10626 3 -48.056613 31.135131 6.700000
10627 3 -47.264075 33.982870 6.700000
10628 3 -46.847360 33.276838 6.700000
10629 3 -46.054822 36.124577 6.700000
10630 3 -45.638106 35.418544 6.700000
10631 3 -44.845568 38.266283 6.700000
10632 3 -44.428853 37.560251 6.700000
10633 3 -43.636315 40.407990 6.700000
10634 3 -43.219600 39.701957 6.700000
10635 3 -42.427062 42.549696 6.700000
10636 3 -42.010347 41.843664 6.700000
10637 3 -41.217809 44.691403 6.700000
10638 3 -40.801094 43.985370 6.700000
10639 3 -40.008556 46.833109 6.700000
10640 3 -39.591840 46.127077 6.700000
10641 3 -38.799302 48.974816 6.700000
10642 3 -38.382587 48.268783 6.700000
10643 3 -37.590049 51.116522 6.700000
10644 3 -37.173334 50.410490 6.700000
10645 3 -36.380796 53.258229 6.700000
10646 3 -35.964081 52.552196 6.700000
10647 3 -35.171543 55.399935 6.700000
10648 3 -34.754828 54.693903 6.700000
10649 3 -33.962290 57.541642 6.700000
10650 3 -33.545574 56.835609 6.700000
10651 3 -73.826753 -17.394476 6.700000
10652 3 -73.410038 -18.100509 6.700000
10653 3 -72.617500 -15.252770 6.700000
10654 3 -72.200784 -15.958802 6.700000
10655 3 -71.408246 -13.111063 6.700000
10656 3 -70.991531 -13.817096 6.700000
10657 3 -70.198993 -10.969357 6.700000
10658 3 -69.782278 -11.675389 6.700000
10659 3 -68.989740 -8.827651 6.700000
10660 3 -68.573025 -9.533683 6.700000
10661 3 -67.780487 -6.685944 6.700000
10662 3 -67.363772 -7.391976 6.700000
10663 3 -66.571234 -4.544238 6.700000
10664 3 -66.154518 -5.250270 6.700000
10665 3 -65.361980 -2.402531 6.700000
10666 3 -64.945265 -3.108563 6.700000
10667 3 -64.152727 -0.260825 6.700000
10668 3 -63.736012 -0.966857 6.700000
10669 3 -62.943474 1.880882 6.700000
10670 3 -62.526759 1.174850 6.700000
10671 3 -61.734221 4.022588 6.700000
10672 3 -61.317506 3.316556 6.700000
10673 3 -60.524968 6.164295 6.700000
10674 3 -60.108252 5.458263 6.700000
10675 3 -59.315714 8.306001 6.700000
10676 3 -58.898999 7.599969 6.700000
10677 3 -58.106461 10.447708 6.700000
10678 3 -57.689746 9.741676 6.700000
10679 3 -56.897208 12.589414 6.700000
10680 3 -56.480493 11.883382 6.700000
10681 3 -55.687955 14.731121 6.700000
10682 3 -55.271240 14.025089 6.700000
10683 3 -54.478702 16.872827 6.700000
10684 3 -54.061986 16.166795 6.700000
10685 3 -53.269448 19.014534 6.700000
10686 3 -52.852733 18.308502 6.700000
10687 3 -52.060195 21.156240 6.700000
10688 3 -51.643480 20.450208 6.700000
10689 3 -50.850942 23.297947 6.700000
10690 3 -50.434227 22.591914 6.700000
10691 3 -49.641689 25.439653 6.700000
10692 3 -49.224974 24.733621 6.700000
10693 3 -48.432436 27.581360 6.700000
10694 3 -48.015720 26.875327 6.700000
10695 3 -47.223182 29.723066 6.700000
10696 3 -46.806467 29.017034 6.700000
10697 3 -46.013929 31.864773 6.700000
10698 3 -45.597214 31.158740 6.700000
10699 3 -44.804676 34.006479 6.700000
10700 3 -44.387961 33.300447 6.700000
10701 3 -43.595423 36.148186 6.700000
10702 3 -43.178708 35.442153 6.700000
10703 3 -42.386170 38.289892 6.700000
10704 3 -41.969454 37.583860 6.700000
10705 3 -41.176916 40.431599 6.700000
10706 3 -40.760201 39.725566 6.700000
10707 3 -39.967663 42.573305 6.700000
10708 3 -39.550948 41.867273 6.700000
10709 3 -38.758410 44.715012 6.700000
10710 3 -38.341695 44.008979 6.700000
10711 3 -37.549157 46.856718 6.700000
10712 3 -37.132442 46.150686 6.700000
10713 3 -36.339904 48.998425 6.700000
10714 3 -35.923188 48.292392 6.700000
10715 3 -35.130650 51.140131 6.700000
10716 3 -34.713935 50.434099 6.700000
10717 3 -33.921397 53.281838 6.700000
10718 3 -33.504682 52.575805 6.700000
10719 3 -32.712144 55.423544 6.700000
10720 3 -32.295429 54.717512 6.700000
10721 3 -31.502891 57.565251 6.700000
10722 3 -31.086176 56.859218 6.700000
10723 3 -73.369145 -22.360313 6.700000
10724 3 -72.576607 -19.512574 6.700000
10725 3 -72.159892 -20.218606 6.700000
10726 3 -71.367354 -17.370867 6.700000
10727 3 -70.950639 -18.076900 6.700000
10728 3 -70.158101 -15.229161 6.700000
10729 3 -69.741386 -15.935193 6.700000
10730 3 -68.948848 -13.087454 6.700000
10731 3 -68.532132 -13.793487 6.700000
10732 3 -67.739594 -10.945748 6.700000
10733 3 -67.322879 -11.651780 6.700000
10734 3 -66.530341 -8.804041 6.700000
10735 3 -66.113626 -9.510074 6.700000
10736 3 -65.321088 -6.662335 6.700000
10737 3 -64.904373 -7.368367 6.700000
10738 3 -64.111835 -4.520628 6.700000
10739 3 -63.695120 -5.226661 6.700000
10740 3 -62.902582 -2.378922 6.700000
10741 3 -62.485866 -3.084954 6.700000
10742 3 -61.693328 -0.237215 6.700000
10743 3 -61.276613 -0.943248 6.700000
10744 3 -60.484075 1.904491 6.700000
10745 3 -60.067360 1.198459 6.700000
10746 3 -59.274822 4.046198 6.700000
10747 3 -58.858107 3.340165 6.700000
10748 3 -58.065569 6.187904 6.700000
10749 3 -57.648854 5.481872 6.700000
10750 3 -56.856316 8.329611 6.700000
10751 3 -56.439600 7.623578 6.700000
10752 3 -55.647062 10.471317 6.700000
10753 3 -55.230347 9.765285 6.700000
10754 3 -54.437809 12.613024 6.700000
10755 3 -54.021094 11.906991 6.700000
10756 3 -53.228556 14.754730 6.700000
10757 3 -52.811841 14.048698 6.700000
10758 3 -52.019303 16.896437 6.700000
10759 3 -51.602588 16.190404 6.700000
10760 3 -50.810050 19.038143 6.700000
10761 3 -50.393334 18.332111 6.700000
10762 3 -49.600796 21.179850 6.700000
10763 3 -49.184081 20.473817 6.700000
10764 3 -48.391543 23.321556 6.700000
10765 3 -47.974828 22.615524 6.700000
10766 3 -47.182290 25.463263 6.700000
10767 3 -46.765575 24.757230 6.700000
10768 3 -45.973037 27.604969 6.700000
10769 3 -45.556322 26.898937 6.700000
10770 3 -44.763784 29.746676 6.700000
10771 3 -44.347068 29.040643 6.700000
10772 3 -43.554530 31.888382 6.700000
10773 3 -43.137815 31.182350 6.700000
10774 3 -42.345277 34.030089 6.700000
10775 3 -41.928562 33.324056 6.700000
10776 3 -41.136024 36.171795 6.700000
10777 3 -40.719309 35.465763 6.700000
10778 3 -39.926771 38.313502 6.700000
10779 3 -39.510056 37.607469 6.700000
10780 3 -38.717518 40.455208 6.700000
10781 3 -38.300802 39.749176 6.700000
10782 3 -37.508264 42.596915 6.700000
10783 3 -37.091549 41.890882 6.700000
10784 3 -36.299011 44.738621 6.700000
10785 3 -35.882296 44.032589 6.700000
10786 3 -35.089758 46.880328 6.700000
10787 3 -34.673043 46.174295 6.700000
10788 3 -33.880505 49.022034 6.700000
10789 3 -33.463790 48.316002 6.700000
10790 3 -32.671252 51.163741 6.700000
10791 3 -32.254536 50.457708 6.700000
10792 3 -31.461998 53.305447 6.700000
10793 3 -31.045283 52.599415 6.700000
10794 3 -30.252745 55.447154 6.700000
10795 3 -29.836030 54.741121 6.700000
10796 3 -29.043492 57.588860 6.700000
10797 3 -28.626777 56.882828 6.700000
10798 3 -72.535715 -23.772377 6.700000
10799 3 -72.118999 -24.478410 6.700000
10800 3 -71.326461 -21.630671 6.700000
10801 3 -70.909746 -22.336703 6.700000
10802 3 -70.117208 -19.488964 6.700000
10803 3 -69.700493 -20.194997 6.700000
10804 3 -68.907955 -17.347258 6.700000
10805 3 -68.491240 -18.053290 6.700000
10806 3 -67.698702 -15.205551 6.700000
10807 3 -67.281987 -15.911584 6.700000
10808 3 -66.489449 -13.063845 6.700000
10809 3 -66.072733 -13.769877 6.700000
10810 3 -65.280195 -10.922138 6.700000
10811 3 -64.863480 -11.628171 6.700000
10812 3 -64.070942 -8.780432 6.700000
10813 3 -63.654227 -9.486464 6.700000
10814 3 -62.861689 -6.638725 6.700000
10815 3 -62.444974 -7.344758 6.700000
10816 3 -61.652436 -4.497019 6.700000
10817 3 -61.235721 -5.203051 6.700000
10818 3 -60.443183 -2.355313 6.700000
10819 3 -60.026468 -3.061345 6.700000
10820 3 -59.233930 -0.213606 6.700000
10821 3 -58.817214 -0.919638 6.700000
10822 3 -58.024676 1.928100 6.700000
10823 3 -57.607961 1.222068 6.700000
10824 3 -56.815423 4.069807 6.700000
10825 3 -56.398708 3.363775 6.700000
10826 3 -55.606170 6.211513 6.700000
10827 3 -55.189455 5.505481 6.700000
10828 3 -54.396917 8.353220 6.700000
10829 3 -53.980202 7.647188 6.700000
10830 3 -53.187664 10.494926 6.700000
10831 3 -52.770948 9.788894 6.700000
10832 3 -51.978410 12.636633 6.700000
10833 3 -51.561695 11.930601 6.700000
10834 3 -50.769157 14.778339 6.700000
10835 3 -50.352442 14.072307 6.700000
10836 3 -49.559904 16.920046 6.700000
10837 3 -49.143189 16.214014 6.700000
10838 3 -48.350651 19.061752 6.700000
10839 3 -47.933936 18.355720 6.700000
10840 3 -47.141398 21.203459 6.700000
10841 3 -46.724682 20.497427 6.700000
10842 3 -45.932144 23.345165 6.700000
10843 3 -45.515429 22.639133 6.700000
10844 3 -44.722891 25.486872 6.700000
10845 3 -44.306176 24.780840 6.700000
10846 3 -43.513638 27.628578 6.700000
10847 3 -43.096923 26.922546 6.700000
10848 3 -42.304385 29.770285 6.700000
10849 3 -41.887670 29.064252 6.700000
10850 3 -41.095132 31.911991 6.700000
10851 3 -40.678416 31.205959 6.700000
10852 3 -39.885878 34.053698 6.700000
10853 3 -39.469163 33.347665 6.700000
10854 3 -38.676625 36.195404 6.700000
10855 3 -38.259910 35.489372 6.700000
10856 3 -37.467372 38.337111 6.700000
10857 3 -37.050657 37.631078 6.700000
10858 3 -36.258119 40.478817 6.700000
10859 3 -35.841404 39.772785 6.700000
10860 3 -35.048866 42.620524 6.700000
10861 3 -34.632150 41.914491 6.700000
10862 3 -33.839612 44.762230 6.700000
10863 3 -33.422897 44.056198 6.700000
10864 3 -32.630359 46.903937 6.700000
10865 3 -32.213644 46.197904 6.700000
10866 3 -31.421106 49.045643 6.700000
10867 3 -31.004391 48.339611 6.700000
10868 3 -30.211853 51.187350 6.700000
10869 3 -29.795138 50.481317 6.700000
10870 3 -29.002600 53.329056 6.700000
10871 3 -28.585884 52.623024 6.700000
10872 3 -27.793346 55.470763 6.700000
10873 3 -27.376631 54.764730 6.700000
10874 3 -26.584093 57.612469 6.700000
10875 3 -26.167378 56.906437 6.700000
10876 3 -71.285569 -25.890475 6.700000
10877 3 -70.868854 -26.596507 6.700000
10878 3 -70.076316 -23.748768 6.700000
10879 3 -69.659601 -24.454801 6.700000
10880 3 -68.867063 -21.607062 6.700000
10881 3 -68.450347 -22.313094 6.700000
10882 3 -67.657809 -19.465355 6.700000
10883 3 -67.241094 -20.171388 6.700000
10884 3 -66.448556 -17.323649 6.700000
10885 3 -66.031841 -18.029681 6.700000
10886 3 -65.239303 -15.181942 6.700000
10887 3 -64.822588 -15.887975 6.700000
10888 3 -64.030050 -13.040236 6.700000
10889 3 -63.613335 -13.746268 6.700000
10890 3 -62.820797 -10.898529 6.700000
10891 3 -62.404081 -11.604562 6.700000
10892 3 -61.611543 -8.756823 6.700000
10893 3 -61.194828 -9.462855 6.700000
10894 3 -60.402290 -6.615116 6.700000
10895 3 -59.985575 -7.321149 6.700000
10896 3 -59.193037 -4.473410 6.700000
10897 3 -58.776322 -5.179442 6.700000
10898 3 -57.983784 -2.331703 6.700000
10899 3 -57.567069 -3.037736 6.700000
10900 3 -56.774531 -0.189997 6.700000
10901 3 -56.357815 -0.896029 6.700000
10902 3 -55.565277 1.951710 6.700000
10903 3 -55.148562 1.245677 6.700000
10904 3 -54.356024 4.093416 6.700000
10905 3 -53.939309 3.387384 6.700000
10906 3 -53.146771 6.235123 6.700000
10907 3 -52.730056 5.529090 6.700000
10908 3 -51.937518 8.376829 6.700000
10909 3 -51.520803 7.670797 6.700000
10910 3 -50.728265 10.518536 6.700000
10911 3 -50.311549 9.812503 6.700000
10912 3 -49.519012 12.660242 6.700000
10913 3 -49.102296 11.954210 6.700000
10914 3 -48.309758 14.801949 6.700000
10915 3 -47.893043 14.095916 6.700000
10916 3 -47.100505 16.943655 6.700000
10917 3 -46.683790 16.237623 6.700000
10918 3 -45.891252 19.085362 6.700000
10919 3 -45.474537 18.379329 6.700000
10920 3 -44.681999 21.227068 6.700000
10921 3 -44.265284 20.521036 6.700000
10922 3 -43.472746 23.368775 6.700000
10923 3 -43.056030 22.662742 6.700000
10924 3 -42.263492 25.510481 6.700000
10925 3 -41.846777 24.804449 6.700000
10926 3 -41.054239 27.652188 6.700000
10927 3 -40.637524 26.946155 6.700000
10928 3 -39.844986 29.793894 6.700000
10929 3 -39.428271 29.087862 6.700000
10930 3 -38.635733 31.935601 6.700000
10931 3 -38.219018 31.229568 6.700000
10932 3 -37.426480 34.077307 6.700000
10933 3 -37.009764 33.371275 6.700000
10934 3 -36.217226 36.219014 6.700000
10935 3 -35.800511 35.512981 6.700000
10936 3 -35.007973 38.360720 6.700000
10937 3 -34.591258 37.654688 6.700000
10938 3 -33.798720 40.502427 6.700000
10939 3 -33.382005 39.796394 6.700000
10940 3 -32.589467 42.644133 6.700000
10941 3 -32.172752 41.938101 6.700000
10942 3 -31.380214 44.785840 6.700000
10943 3 -30.963498 44.079807 6.700000
10944 3 -30.170960 46.927546 6.700000
10945 3 -29.754245 46.221514 6.700000
10946 3 -28.961707 49.069253 6.700000
10947 3 -28.544992 48.363220 6.700000
10948 3 -27.752454 51.210959 6.700000
10949 3 -27.335739 50.504927 6.700000
10950 3 -26.543201 53.352666 6.700000
10951 3 -26.126486 52.646633 6.700000
10952 3 -25.333948 55.494372 6.700000
10953 3 -24.917232 54.788340 6.700000
10954 3 -24.124694 57.636079 6.700000
10955 3 -23.707979 56.930046 6.700000
10956 3 -70.035423 -28.008572 6.700000
10957 3 -69.618708 -28.714604 6.700000
10958 3 -68.826170 -25.866865 6.700000
10959 3 -68.409455 -26.572898 6.700000
10960 3 -67.616917 -23.725159 6.700000
10961 3 -67.200202 -24.431191 6.700000
10962 3 -66.407664 -21.583452 6.700000
10963 3 -65.990949 -22.289485 6.700000
10964 3 -65.198411 -19.441746 6.700000
10965 3 -64.781695 -20.147778 6.700000
10966 3 -63.989157 -17.300039 6.700000
10967 3 -63.572442 -18.006072 6.700000
10968 3 -62.779904 -15.158333 6.700000
10969 3 -62.363189 -15.864365 6.700000
10970 3 -61.570651 -13.016626 6.700000
10971 3 -61.153936 -13.722659 6.700000
10972 3 -60.361398 -10.874920 6.700000
10973 3 -59.944683 -11.580952 6.700000
10974 3 -59.152145 -8.733213 6.700000
10975 3 -58.735429 -9.439246 6.700000
10976 3 -57.942891 -6.591507 6.700000
10977 3 -57.526176 -7.297539 6.700000
10978 3 -56.733638 -4.449800 6.700000
10979 3 -56.316923 -5.155833 6.700000
10980 3 -55.524385 -2.308094 6.700000
10981 3 -55.107670 -3.014126 6.700000
10982 3 -54.315132 -0.166387 6.700000
10983 3 -53.898417 -0.872420 6.700000
10984 3 -53.105879 1.975319 6.700000
10985 3 -52.689163 1.269287 6.700000
10986 3 -51.896625 4.117025 6.700000
10987 3 -51.479910 3.410993 6.700000
10988 3 -50.687372 6.258732 6.700000
10989 3 -50.270657 5.552700 6.700000
10990 3 -49.478119 8.400438 6.700000
10991 3 -49.061404 7.694406 6.700000
10992 3 -48.268866 10.542145 6.700000
10993 3 -47.852151 9.836113 6.700000
10994 3 -47.059613 12.683851 6.700000
10995 3 -46.642897 11.977819 6.700000
10996 3 -45.850359 14.825558 6.700000
10997 3 -45.433644 14.119526 6.700000
10998 3 -44.641106 16.967264 6.700000
10999 3 -44.224391 16.261232 6.700000
11000 3 -43.431853 19.108971 6.700000
11001 3 -43.015138 18.402939 6.700000
11002 3 -42.222600 21.250677 6.700000
11003 3 -41.805885 20.544645 6.700000
11004 3 -41.013347 23.392384 6.700000
11005 3 -40.596631 22.686352 6.700000
11006 3 -39.804093 25.534090 6.700000
11007 3 -39.387378 24.828058 6.700000
11008 3 -38.594840 27.675797 6.700000
11009 3 -38.178125 26.969765 6.700000
11010 3 -37.385587 29.817503 6.700000
11011 3 -36.968872 29.111471 6.700000
11012 3 -36.176334 31.959210 6.700000
11013 3 -35.759619 31.253178 6.700000
11014 3 -34.967081 34.100916 6.700000
11015 3 -34.550365 33.394884 6.700000
11016 3 -33.757828 36.242623 6.700000
11017 3 -33.341112 35.536590 6.700000
11018 3 -32.548574 38.384329 6.700000
11019 3 -32.131859 37.678297 6.700000
11020 3 -31.339321 40.526036 6.700000
11021 3 -30.922606 39.820003 6.700000
11022 3 -30.130068 42.667742 6.700000
11023 3 -29.713353 41.961710 6.700000
11024 3 -28.920815 44.809449 6.700000
11025 3 -28.504100 44.103416 6.700000
11026 3 -27.711562 46.951155 6.700000
11027 3 -27.294846 46.245123 6.700000
11028 3 -26.502308 49.092862 6.700000
11029 3 -26.085593 48.386829 6.700000
11030 3 -25.293055 51.234568 6.700000
11031 3 -24.876340 50.528536 6.700000
11032 3 -24.083802 53.376275 6.700000
11033 3 -23.667087 52.670242 6.700000
11034 3 -22.874549 55.517981 6.700000
11035 3 -22.457834 54.811949 6.700000
11036 3 -21.665296 57.659688 6.700000
11037 3 -21.248580 56.953655 6.700000
11038 3 -68.785278 -30.126669 6.700000
11039 3 -68.368563 -30.832702 6.700000
11040 3 -67.576025 -27.984963 6.700000
11041 3 -67.159309 -28.690995 6.700000
11042 3 -66.366771 -25.843256 6.700000
11043 3 -65.950056 -26.549289 6.700000
11044 3 -65.157518 -23.701550 6.700000
11045 3 -64.740803 -24.407582 6.700000
11046 3 -63.948265 -21.559843 6.700000
11047 3 -63.531550 -22.265876 6.700000
11048 3 -62.739012 -19.418137 6.700000
11049 3 -62.322297 -20.124169 6.700000
11050 3 -61.529759 -17.276430 6.700000
11051 3 -61.113043 -17.982463 6.700000
11052 3 -60.320505 -15.134724 6.700000
11053 3 -59.903790 -15.840756 6.700000
11054 3 -59.111252 -12.993017 6.700000
11055 3 -58.694537 -13.699050 6.700000
11056 3 -57.901999 -10.851311 6.700000
11057 3 -57.485284 -11.557343 6.700000
11058 3 -56.692746 -8.709604 6.700000
11059 3 -56.276031 -9.415637 6.700000
11060 3 -55.483493 -6.567898 6.700000
11061 3 -55.066777 -7.273930 6.700000
11062 3 -54.274239 -4.426191 6.700000
11063 3 -53.857524 -5.132224 6.700000
11064 3 -53.064986 -2.284485 6.700000
11065 3 -52.648271 -2.990517 6.700000
11066 3 -51.855733 -0.142778 6.700000
11067 3 -51.439018 -0.848811 6.700000
11068 3 -50.646480 1.998928 6.700000
11069 3 -50.229765 1.292896 6.700000
11070 3 -49.437227 4.140635 6.700000
11071 3 -49.020511 3.434602 6.700000
11072 3 -48.227973 6.282341 6.700000
11073 3 -47.811258 5.576309 6.700000
11074 3 -47.018720 8.424048 6.700000
11075 3 -46.602005 7.718015 6.700000
11076 3 -45.809467 10.565754 6.700000
11077 3 -45.392752 9.859722 6.700000
11078 3 -44.600214 12.707461 6.700000
11079 3 -44.183499 12.001428 6.700000
11080 3 -43.390961 14.849167 6.700000
11081 3 -42.974245 14.143135 6.700000
11082 3 -42.181707 16.990874 6.700000
11083 3 -41.764992 16.284841 6.700000
11084 3 -40.972454 19.132580 6.700000
11085 3 -40.555739 18.426548 6.700000
11086 3 -39.763201 21.274287 6.700000
11087 3 -39.346486 20.568254 6.700000
11088 3 -38.553948 23.415993 6.700000
11089 3 -38.137233 22.709961 6.700000
11090 3 -37.344695 25.557700 6.700000
11091 3 -36.927979 24.851667 6.700000
11092 3 -36.135441 27.699406 6.700000
11093 3 -35.718726 26.993374 6.700000
11094 3 -34.926188 29.841113 6.700000
11095 3 -34.509473 29.135080 6.700000
11096 3 -33.716935 31.982819 6.700000
11097 3 -33.300220 31.276787 6.700000
11098 3 -32.507682 34.124526 6.700000
11099 3 -32.090967 33.418493 6.700000
11100 3 -31.298429 36.266232 6.700000
11101 3 -30.881713 35.560200 6.700000
11102 3 -30.089175 38.407939 6.700000
11103 3 -29.672460 37.701906 6.700000
11104 3 -28.879922 40.549645 6.700000
11105 3 -28.463207 39.843613 6.700000
11106 3 -27.670669 42.691352 6.700000
11107 3 -27.253954 41.985319 6.700000
11108 3 -26.461416 44.833058 6.700000
11109 3 -26.044701 44.127026 6.700000
11110 3 -25.252163 46.974765 6.700000
11111 3 -24.835447 46.268732 6.700000
11112 3 -24.042910 49.116471 6.700000
11113 3 -23.626194 48.410439 6.700000
11114 3 -22.833656 51.258178 6.700000
11115 3 -22.416941 50.552145 6.700000
11116 3 -21.624403 53.399884 6.700000
11117 3 -21.207688 52.693852 6.700000
11118 3 -20.415150 55.541591 6.700000
11119 3 -19.998435 54.835558 6.700000
11120 3 -19.205897 57.683297 6.700000
11121 3 -18.789182 56.977265 6.700000
11122 3 -68.744385 -34.386473 6.700000
11123 3 -68.327670 -35.092505 6.700000
11124 3 -67.535132 -32.244766 6.700000
11125 3 -67.118417 -32.950799 6.700000
11126 3 -66.325879 -30.103060 6.700000
11127 3 -65.909164 -30.809092 6.700000
11128 3 -65.116626 -27.961353 6.700000
11129 3 -64.699911 -28.667386 6.700000
11130 3 -63.907373 -25.819647 6.700000
11131 3 -63.490657 -26.525679 6.700000
11132 3 -62.698119 -23.677940 6.700000
11133 3 -62.281404 -24.383973 6.700000
11134 3 -61.488866 -21.536234 6.700000
11135 3 -61.072151 -22.242266 6.700000
11136 3 -60.279613 -19.394527 6.700000
11137 3 -59.862898 -20.100560 6.700000
11138 3 -59.070360 -17.252821 6.700000
11139 3 -58.653645 -17.958853 6.700000
11140 3 -57.861107 -15.111114 6.700000
11141 3 -57.444391 -15.817147 6.700000
11142 3 -56.651853 -12.969408 6.700000
11143 3 -56.235138 -13.675440 6.700000
11144 3 -55.442600 -10.827701 6.700000
11145 3 -55.025885 -11.533734 6.700000
11146 3 -54.233347 -8.685995 6.700000
11147 3 -53.816632 -9.392027 6.700000
11148 3 -53.024094 -6.544288 6.700000
11149 3 -52.607379 -7.250321 6.700000
11150 3 -51.814841 -4.402582 6.700000
11151 3 -51.398125 -5.108614 6.700000
11152 3 -50.605587 -2.260875 6.700000
11153 3 -50.188872 -2.966908 6.700000
11154 3 -49.396334 -0.119169 6.700000
11155 3 -48.979619 -0.825201 6.700000
11156 3 -48.187081 2.022538 6.700000
11157 3 -47.770366 1.316505 6.700000
11158 3 -46.977828 4.164244 6.700000
11159 3 -46.561113 3.458212 6.700000
11160 3 -45.768575 6.305951 6.700000
11161 3 -45.351859 5.599918 6.700000
11162 3 -44.559321 8.447657 6.700000
11163 3 -44.142606 7.741625 6.700000
11164 3 -43.350068 10.589363 6.700000
11165 3 -42.933353 9.883331 6.700000
11166 3 -42.140815 12.731070 6.700000
11167 3 -41.724100 12.025038 6.700000
11168 3 -40.931562 14.872776 6.700000
11169 3 -40.514847 14.166744 6.700000
11170 3 -39.722309 17.014483 6.700000
11171 3 -39.305593 16.308451 6.700000
11172 3 -38.513055 19.156189 6.700000
11173 3 -38.096340 18.450157 6.700000
11174 3 -37.303802 21.297896 6.700000
11175 3 -36.887087 20.591864 6.700000
11176 3 -36.094549 23.439602 6.700000
11177 3 -35.677834 22.733570 6.700000
11178 3 -34.885296 25.581309 6.700000
11179 3 -34.468581 24.875277 6.700000
11180 3 -33.676043 27.723015 6.700000
11181 3 -33.259327 27.016983 6.700000
11182 3 -32.466789 29.864722 6.700000
11183 3 -32.050074 29.158690 6.700000
11184 3 -31.257536 32.006428 6.700000
11185 3 -30.840821 31.300396 6.700000
11186 3 -30.048283 34.148135 6.700000
11187 3 -29.631568 33.442103 6.700000
11188 3 -28.839030 36.289841 6.700000
11189 3 -28.422315 35.583809 6.700000
11190 3 -27.629777 38.431548 6.700000
11191 3 -27.213061 37.725516 6.700000
11192 3 -26.420523 40.573254 6.700000
11193 3 -26.003808 39.867222 6.700000
11194 3 -25.211270 42.714961 6.700000
11195 3 -24.794555 42.008928 6.700000
11196 3 -24.002017 44.856667 6.700000
11197 3 -23.585302 44.150635 6.700000
11198 3 -22.792764 46.998374 6.700000
11199 3 -22.376049 46.292341 6.700000
11200 3 -21.583511 49.140080 6.700000
11201 3 -21.166795 48.434048 6.700000
11202 3 -20.374257 51.281787 6.700000
11203 3 -19.957542 50.575754 6.700000
11204 3 -19.165004 53.423493 6.700000
11205 3 -18.748289 52.717461 6.700000
11206 3 -17.955751 55.565200 6.700000
11207 3 -17.539036 54.859167 6.700000
11208 3 -16.746498 57.706906 6.700000
11209 3 -16.329783 57.000874 6.700000
11210 3 -67.494240 -36.504570 6.700000
11211 3 -67.077524 -37.210603 6.700000
11212 3 -66.284987 -34.362864 6.700000
11213 3 -65.868271 -35.068896 6.700000
11214 3 -65.075733 -32.221157 6.700000
11215 3 -64.659018 -32.927190 6.700000
11216 3 -63.866480 -30.079451 6.700000
11217 3 -63.449765 -30.785483 6.700000
11218 3 -62.657227 -27.937744 6.700000
11219 3 -62.240512 -28.643777 6.700000
11220 3 -61.447974 -25.796038 6.700000
11221 3 -61.031259 -26.502070 6.700000
11222 3 -60.238721 -23.654331 6.700000
11223 3 -59.822005 -24.360364 6.700000
11224 3 -59.029467 -21.512625 6.700000
11225 3 -58.612752 -22.218657 6.700000
11226 3 -57.820214 -19.370918 6.700000
11227 3 -57.403499 -20.076951 6.700000
11228 3 -56.610961 -17.229212 6.700000
11229 3 -56.194246 -17.935244 6.700000
11230 3 -55.401708 -15.087505 6.700000
11231 3 -54.984993 -15.793538 6.700000
11232 3 -54.192455 -12.945799 6.700000
11233 3 -53.775739 -13.651831 6.700000
11234 3 -52.983201 -10.804092 6.700000
11235 3 -52.566486 -11.510125 6.700000
11236 3 -51.773948 -8.662386 6.700000
11237 3 -51.357233 -9.368418 6.700000
11238 3 -50.564695 -6.520679 6.700000
11239 3 -50.147980 -7.226712 6.700000
11240 3 -49.355442 -4.378973 6.700000
11241 3 -48.938727 -5.085005 6.700000
11242 3 -48.146189 -2.237266 6.700000
11243 3 -47.729473 -2.943299 6.700000
11244 3 -46.936935 -0.095560 6.700000
11245 3 -46.520220 -0.801592 6.700000
11246 3 -45.727682 2.046147 6.700000
11247 3 -45.310967 1.340114 6.700000
11248 3 -44.518429 4.187853 6.700000
11249 3 -44.101714 3.481821 6.700000
11250 3 -43.309176 6.329560 6.700000
11251 3 -42.892461 5.623527 6.700000
11252 3 -42.099923 8.471266 6.700000
11253 3 -41.683207 7.765234 6.700000
11254 3 -40.890669 10.612973 6.700000
11255 3 -40.473954 9.906940 6.700000
11256 3 -39.681416 12.754679 6.700000
11257 3 -39.264701 12.048647 6.700000
11258 3 -38.472163 14.896386 6.700000
11259 3 -38.055448 14.190353 6.700000
11260 3 -37.262910 17.038092 6.700000
11261 3 -36.846195 16.332060 6.700000
11262 3 -36.053657 19.179799 6.700000
11263 3 -35.636941 18.473766 6.700000
11264 3 -34.844403 21.321505 6.700000
11265 3 -34.427688 20.615473 6.700000
11266 3 -33.635150 23.463212 6.700000
11267 3 -33.218435 22.757179 6.700000
11268 3 -32.425897 25.604918 6.700000
11269 3 -32.009182 24.898886 6.700000
11270 3 -31.216644 27.746625 6.700000
11271 3 -30.799929 27.040592 6.700000
11272 3 -30.007391 29.888331 6.700000
11273 3 -29.590675 29.182299 6.700000
11274 3 -28.798137 32.030038 6.700000
11275 3 -28.381422 31.324005 6.700000
11276 3 -27.588884 34.171744 6.700000
11277 3 -27.172169 33.465712 6.700000
11278 3 -26.379631 36.313451 6.700000
11279 3 -25.962916 35.607418 6.700000
11280 3 -25.170378 38.455157 6.700000
11281 3 -24.753663 37.749125 6.700000
11282 3 -23.961125 40.596864 6.700000
11283 3 -23.544409 39.890831 6.700000
11284 3 -22.751871 42.738570 6.700000
11285 3 -22.335156 42.032538 6.700000
11286 3 -21.542618 44.880277 6.700000
11287 3 -21.125903 44.174244 6.700000
11288 3 -20.333365 47.021983 6.700000
11289 3 -19.916650 46.315951 6.700000
11290 3 -19.124112 49.163690 6.700000
11291 3 -18.707397 48.457657 6.700000
11292 3 -17.914859 51.305396 6.700000
11293 3 -17.498143 50.599364 6.700000
11294 3 -16.705605 53.447103 6.700000
11295 3 -16.288890 52.741070 6.700000
11296 3 -15.496352 55.588809 6.700000
11297 3 -15.079637 54.882777 6.700000
11298 3 -14.287099 57.730516 6.700000
11299 3 -13.870384 57.024483 6.700000
11300 3 -66.244094 -38.622667 6.700000
11301 3 -65.827379 -39.328700 6.700000
11302 3 -65.034841 -36.480961 6.700000
11303 3 -64.618126 -37.186993 6.700000
11304 3 -63.825588 -34.339254 6.700000
11305 3 -63.408872 -35.045287 6.700000
11306 3 -62.616334 -32.197548 6.700000
11307 3 -62.199619 -32.903580 6.700000
11308 3 -61.407081 -30.055841 6.700000
11309 3 -60.990366 -30.761874 6.700000
11310 3 -60.197828 -27.914135 6.700000
11311 3 -59.781113 -28.620167 6.700000
11312 3 -58.988575 -25.772428 6.700000
11313 3 -58.571860 -26.478461 6.700000
11314 3 -57.779322 -23.630722 6.700000
11315 3 -57.362606 -24.336754 6.700000
11316 3 -56.570069 -21.489015 6.700000
11317 3 -56.153353 -22.195048 6.700000
11318 3 -55.360815 -19.347309 6.700000
11319 3 -54.944100 -20.053341 6.700000
11320 3 -54.151562 -17.205602 6.700000
11321 3 -53.734847 -17.911635 6.700000
11322 3 -52.942309 -15.063896 6.700000
11323 3 -52.525594 -15.769928 6.700000
11324 3 -51.733056 -12.922189 6.700000
11325 3 -51.316341 -13.628222 6.700000
11326 3 -50.523803 -10.780483 6.700000
11327 3 -50.107087 -11.486515 6.700000
11328 3 -49.314549 -8.638776 6.700000
11329 3 -48.897834 -9.344809 6.700000
11330 3 -48.105296 -6.497070 6.700000
11331 3 -47.688581 -7.203102 6.700000
11332 3 -46.896043 -4.355363 6.700000
11333 3 -46.479328 -5.061396 6.700000
11334 3 -45.686790 -2.213657 6.700000
11335 3 -45.270075 -2.919689 6.700000
11336 3 -44.477537 -0.071950 6.700000
11337 3 -44.060821 -0.777983 6.700000
11338 3 -43.268283 2.069756 6.700000
11339 3 -42.851568 1.363724 6.700000
11340 3 -42.059030 4.211463 6.700000
11341 3 -41.642315 3.505430 6.700000
11342 3 -40.849777 6.353169 6.700000
11343 3 -40.433062 5.647137 6.700000
11344 3 -39.640524 8.494876 6.700000
11345 3 -39.223809 7.788843 6.700000
11346 3 -38.431271 10.636582 6.700000
11347 3 -38.014555 9.930550 6.700000
11348 3 -37.222017 12.778289 6.700000
11349 3 -36.805302 12.072256 6.700000
11350 3 -36.012764 14.919995 6.700000
11351 3 -35.596049 14.213963 6.700000
11352 3 -34.803511 17.061701 6.700000
11353 3 -34.386796 16.355669 6.700000
11354 3 -33.594258 19.203408 6.700000
11355 3 -33.177543 18.497376 6.700000
11356 3 -32.385005 21.345114 6.700000
11357 3 -31.968289 20.639082 6.700000
11358 3 -31.175751 23.486821 6.700000
11359 3 -30.759036 22.780789 6.700000
11360 3 -29.966498 25.628527 6.700000
11361 3 -29.549783 24.922495 6.700000
11362 3 -28.757245 27.770234 6.700000
11363 3 -28.340530 27.064202 6.700000
11364 3 -27.547992 29.911940 6.700000
11365 3 -27.131277 29.205908 6.700000
11366 3 -26.338739 32.053647 6.700000
11367 3 -25.922023 31.347615 6.700000
11368 3 -25.129485 34.195353 6.700000
11369 3 -24.712770 33.489321 6.700000
11370 3 -23.920232 36.337060 6.700000
11371 3 -23.503517 35.631028 6.700000
11372 3 -22.710979 38.478766 6.700000
11373 3 -22.294264 37.772734 6.700000
11374 3 -21.501726 40.620473 6.700000
11375 3 -21.085011 39.914441 6.700000
11376 3 -20.292473 42.762179 6.700000
11377 3 -19.875757 42.056147 6.700000
11378 3 -19.083219 44.903886 6.700000
11379 3 -18.666504 44.197854 6.700000
11380 3 -17.873966 47.045592 6.700000
11381 3 -17.457251 46.339560 6.700000
11382 3 -16.664713 49.187299 6.700000
11383 3 -16.247998 48.481266 6.700000
11384 3 -15.455460 51.329005 6.700000
11385 3 -15.038745 50.622973 6.700000
11386 3 -14.246207 53.470712 6.700000
11387 3 -13.829491 52.764679 6.700000
11388 3 -13.036953 55.612418 6.700000
11389 3 -12.620238 54.906386 6.700000
11390 3 -11.827700 57.754125 6.700000
11391 3 -11.410985 57.048092 6.700000
11392 3 -64.993948 -40.740765 6.700000
11393 3 -64.577233 -41.446797 6.700000
11394 3 -63.784695 -38.599058 6.700000
11395 3 -63.367980 -39.305091 6.700000
11396 3 -62.575442 -36.457352 6.700000
11397 3 -62.158727 -37.163384 6.700000
11398 3 -61.366189 -34.315645 6.700000
11399 3 -60.949474 -35.021678 6.700000
11400 3 -60.156936 -32.173939 6.700000
11401 3 -59.740220 -32.879971 6.700000
11402 3 -58.947682 -30.032232 6.700000
11403 3 -58.530967 -30.738265 6.700000
11404 3 -57.738429 -27.890526 6.700000
11405 3 -57.321714 -28.596558 6.700000
11406 3 -56.529176 -25.748819 6.700000
11407 3 -56.112461 -26.454852 6.700000
11408 3 -55.319923 -23.607113 6.700000
11409 3 -54.903208 -24.313145 6.700000
11410 3 -54.110670 -21.465406 6.700000
11411 3 -53.693954 -22.171439 6.700000
11412 3 -52.901416 -19.323700 6.700000
11413 3 -52.484701 -20.029732 6.700000
11414 3 -51.692163 -17.181993 6.700000
11415 3 -51.275448 -17.888026 6.700000
11416 3 -50.482910 -15.040287 6.700000
11417 3 -50.066195 -15.746319 6.700000
11418 3 -49.273657 -12.898580 6.700000
11419 3 -48.856942 -13.604613 6.700000
11420 3 -48.064404 -10.756874 6.700000
11421 3 -47.647688 -11.462906 6.700000
11422 3 -46.855150 -8.615167 6.700000
11423 3 -46.438435 -9.321200 6.700000
11424 3 -45.645897 -6.473461 6.700000
11425 3 -45.229182 -7.179493 6.700000
11426 3 -44.436644 -4.331754 6.700000
11427 3 -44.019929 -5.037787 6.700000
11428 3 -43.227391 -2.190048 6.700000
11429 3 -42.810676 -2.896080 6.700000
11430 3 -42.018138 -0.048341 6.700000
11431 3 -41.601422 -0.754374 6.700000
11432 3 -40.808885 2.093365 6.700000
11433 3 -40.392169 1.387333 6.700000
11434 3 -39.599631 4.235072 6.700000
11435 3 -39.182916 3.529039 6.700000
11436 3 -38.390378 6.376778 6.700000
11437 3 -37.973663 5.670746 6.700000
11438 3 -37.181125 8.518485 6.700000
11439 3 -36.764410 7.812452 6.700000
11440 3 -35.971872 10.660191 6.700000
11441 3 -35.555157 9.954159 6.700000
11442 3 -34.762619 12.801898 6.700000
11443 3 -34.345903 12.095865 6.700000
11444 3 -33.553365 14.943604 6.700000
11445 3 -33.136650 14.237572 6.700000
11446 3 -32.344112 17.085311 6.700000
11447 3 -31.927397 16.379278 6.700000
11448 3 -31.134859 19.227017 6.700000
11449 3 -30.718144 18.520985 6.700000
11450 3 -29.925606 21.368724 6.700000
11451 3 -29.508891 20.662691 6.700000
11452 3 -28.716353 23.510430 6.700000
11453 3 -28.299637 22.804398 6.700000
11454 3 -27.507099 25.652137 6.700000
11455 3 -27.090384 24.946104 6.700000
11456 3 -26.297846 27.793843 6.700000
11457 3 -25.881131 27.087811 6.700000
11458 3 -25.088593 29.935550 6.700000
11459 3 -24.671878 29.229517 6.700000
11460 3 -23.879340 32.077256 6.700000
11461 3 -23.462625 31.371224 6.700000
11462 3 -22.670087 34.218963 6.700000
11463 3 -22.253371 33.512930 6.700000
11464 3 -21.460833 36.360669 6.700000
11465 3 -21.044118 35.654637 6.700000
11466 3 -20.251580 38.502376 6.700000
11467 3 -19.834865 37.796343 6.700000
11468 3 -19.042327 40.644082 6.700000
11469 3 -18.625612 39.938050 6.700000
11470 3 -17.833074 42.785789 6.700000
11471 3 -17.416359 42.079756 6.700000
11472 3 -16.623821 44.927495 6.700000
11473 3 -16.207105 44.221463 6.700000
11474 3 -15.414567 47.069202 6.700000
11475 3 -14.997852 46.363169 6.700000
11476 3 -14.205314 49.210908 6.700000
11477 3 -13.788599 48.504876 6.700000
11478 3 -12.996061 51.352615 6.700000
11479 3 -12.579346 50.646582 6.700000
11480 3 -11.786808 53.494321 6.700000
11481 3 -11.370093 52.788289 6.700000
11482 3 -10.577555 55.636028 6.700000
11483 3 -10.160839 54.929995 6.700000
11484 3 -9.368301 57.777734 6.700000
11485 3 -8.951586 57.071702 6.700000
11486 3 -63.743803 -42.858862 6.700000
11487 3 -63.327088 -43.564894 6.700000
11488 3 -62.534550 -40.717155 6.700000
11489 3 -62.117834 -41.423188 6.700000
11490 3 -61.325296 -38.575449 6.700000
11491 3 -60.908581 -39.281481 6.700000
11492 3 -60.116043 -36.433742 6.700000
11493 3 -59.699328 -37.139775 6.700000
11494 3 -58.906790 -34.292036 6.700000
11495 3 -58.490075 -34.998068 6.700000
11496 3 -57.697537 -32.150329 6.700000
11497 3 -57.280822 -32.856362 6.700000
11498 3 -56.488284 -30.008623 6.700000
11499 3 -56.071568 -30.714655 6.700000
11500 3 -55.279030 -27.866916 6.700000
11501 3 -54.862315 -28.572949 6.700000
11502 3 -54.069777 -25.725210 6.700000
11503 3 -53.653062 -26.431242 6.700000
11504 3 -52.860524 -23.583503 6.700000
11505 3 -52.443809 -24.289536 6.700000
11506 3 -51.651271 -21.441797 6.700000
11507 3 -51.234556 -22.147829 6.700000
11508 3 -50.442018 -19.300090 6.700000
11509 3 -50.025302 -20.006123 6.700000
11510 3 -49.232764 -17.158384 6.700000
11511 3 -48.816049 -17.864416 6.700000
11512 3 -48.023511 -15.016677 6.700000
11513 3 -47.606796 -15.722710 6.700000
11514 3 -46.814258 -12.874971 6.700000
11515 3 -46.397543 -13.581003 6.700000
11516 3 -45.605005 -10.733264 6.700000
11517 3 -45.188290 -11.439297 6.700000
11518 3 -44.395752 -8.591558 6.700000
11519 3 -43.979036 -9.297590 6.700000
11520 3 -43.186498 -6.449851 6.700000
11521 3 -42.769783 -7.155884 6.700000
11522 3 -41.977245 -4.308145 6.700000
11523 3 -41.560530 -5.014177 6.700000
11524 3 -40.767992 -2.166438 6.700000
11525 3 -40.351277 -2.872471 6.700000
11526 3 -39.558739 -0.024732 6.700000
11527 3 -39.142024 -0.730764 6.700000
11528 3 -38.349486 2.116975 6.700000
11529 3 -37.932770 1.410942 6.700000
11530 3 -37.140232 4.258681 6.700000
11531 3 -36.723517 3.552649 6.700000
11532 3 -35.930979 6.400388 6.700000
11533 3 -35.514264 5.694355 6.700000
11534 3 -34.721726 8.542094 6.700000
11535 3 -34.305011 7.836062 6.700000
11536 3 -33.512473 10.683801 6.700000
11537 3 -33.095758 9.977768 6.700000
11538 3 -32.303220 12.825507 6.700000
11539 3 -31.886504 12.119475 6.700000
11540 3 -31.093967 14.967214 6.700000
11541 3 -30.677251 14.261181 6.700000
11542 3 -29.884713 17.108920 6.700000
11543 3 -29.467998 16.402888 6.700000
11544 3 -28.675460 19.250627 6.700000
11545 3 -28.258745 18.544594 6.700000
11546 3 -27.466207 21.392333 6.700000
11547 3 -27.049492 20.686301 6.700000
11548 3 -26.256954 23.534039 6.700000
11549 3 -25.840239 22.828007 6.700000
11550 3 -25.047701 25.675746 6.700000
11551 3 -24.630985 24.969714 6.700000
11552 3 -23.838447 27.817452 6.700000
11553 3 -23.421732 27.111420 6.700000
11554 3 -22.629194 29.959159 6.700000
11555 3 -22.212479 29.253127 6.700000
11556 3 -21.419941 32.100865 6.700000
11557 3 -21.003226 31.394833 6.700000
11558 3 -20.210688 34.242572 6.700000
11559 3 -19.793973 33.536540 6.700000
11560 3 -19.001435 36.384278 6.700000
11561 3 -18.584719 35.678246 6.700000
11562 3 -17.792181 38.525985 6.700000
11563 3 -17.375466 37.819953 6.700000
11564 3 -16.582928 40.667691 6.700000
11565 3 -16.166213 39.961659 6.700000
11566 3 -15.373675 42.809398 6.700000
11567 3 -14.956960 42.103366 6.700000
11568 3 -14.164422 44.951104 6.700000
11569 3 -13.747707 44.245072 6.700000
11570 3 -12.955169 47.092811 6.700000
11571 3 -12.538453 46.386779 6.700000
11572 3 -11.745915 49.234517 6.700000
11573 3 -11.329200 48.528485 6.700000
11574 3 -10.536662 51.376224 6.700000
11575 3 -10.119947 50.670192 6.700000
11576 3 -9.327409 53.517930 6.700000
11577 3 -8.910694 52.811898 6.700000
11578 3 -8.118156 55.659637 6.700000
11579 3 -7.701441 54.953604 6.700000
11580 3 -6.908903 57.801343 6.700000
11581 3 -6.492187 57.095311 6.700000
11582 3 -61.284404 -42.835253 6.700000
11583 3 -60.867689 -43.541285 6.700000
11584 3 -60.075151 -40.693546 6.700000
11585 3 -59.658436 -41.399578 6.700000
11586 3 -58.865898 -38.551840 6.700000
11587 3 -58.449182 -39.257872 6.700000
11588 3 -57.656644 -36.410133 6.700000
11589 3 -57.239929 -37.116165 6.700000
11590 3 -56.447391 -34.268427 6.700000
11591 3 -56.030676 -34.974459 6.700000
11592 3 -55.238138 -32.126720 6.700000
11593 3 -54.821423 -32.832753 6.700000
11594 3 -54.028885 -29.985014 6.700000
11595 3 -53.612170 -30.691046 6.700000
11596 3 -52.819632 -27.843307 6.700000
11597 3 -52.402916 -28.549340 6.700000
11598 3 -51.610378 -25.701601 6.700000
11599 3 -51.193663 -26.407633 6.700000
11600 3 -50.401125 -23.559894 6.700000
11601 3 -49.984410 -24.265927 6.700000
11602 3 -49.191872 -21.418188 6.700000
11603 3 -48.775157 -22.124220 6.700000
11604 3 -47.982619 -19.276481 6.700000
11605 3 -47.565904 -19.982514 6.700000
11606 3 -46.773366 -17.134775 6.700000
11607 3 -46.356650 -17.840807 6.700000
11608 3 -45.564112 -14.993068 6.700000
11609 3 -45.147397 -15.699101 6.700000
11610 3 -44.354859 -12.851362 6.700000
11611 3 -43.938144 -13.557394 6.700000
11612 3 -43.145606 -10.709655 6.700000
11613 3 -42.728891 -11.415688 6.700000
11614 3 -41.936353 -8.567949 6.700000
11615 3 -41.519638 -9.273981 6.700000
11616 3 -40.727100 -6.426242 6.700000
11617 3 -40.310384 -7.132275 6.700000
11618 3 -39.517846 -4.284536 6.700000
11619 3 -39.101131 -4.990568 6.700000
11620 3 -38.308593 -2.142829 6.700000
11621 3 -37.891878 -2.848862 6.700000
11622 3 -37.099340 -0.001123 6.700000
11623 3 -36.682625 -0.707155 6.700000
11624 3 -35.890087 2.140584 6.700000
11625 3 -35.473372 1.434551 6.700000
11626 3 -34.680834 4.282290 6.700000
11627 3 -34.264118 3.576258 6.700000
11628 3 -33.471580 6.423997 6.700000
11629 3 -33.054865 5.717964 6.700000
11630 3 -32.262327 8.565703 6.700000
11631 3 -31.845612 7.859671 6.700000
11632 3 -31.053074 10.707410 6.700000
11633 3 -30.636359 10.001377 6.700000
11634 3 -29.843821 12.849116 6.700000
11635 3 -29.427106 12.143084 6.700000
11636 3 -28.634568 14.990823 6.700000
11637 3 -28.217852 14.284790 6.700000
11638 3 -27.425314 17.132529 6.700000
11639 3 -27.008599 16.426497 6.700000
11640 3 -26.216061 19.274236 6.700000
11641 3 -25.799346 18.568203 6.700000
11642 3 -25.006808 21.415942 6.700000
11643 3 -24.590093 20.709910 6.700000
11644 3 -23.797555 23.557649 6.700000
11645 3 -23.380840 22.851616 6.700000
11646 3 -22.588302 25.699355 6.700000
11647 3 -22.171586 24.993323 6.700000
11648 3 -21.379048 27.841062 6.700000
11649 3 -20.962333 27.135029 6.700000
11650 3 -20.169795 29.982768 6.700000
11651 3 -19.753080 29.276736 6.700000
11652 3 -18.960542 32.124475 6.700000
11653 3 -18.543827 31.418442 6.700000
11654 3 -17.751289 34.266181 6.700000
11655 3 -17.334574 33.560149 6.700000
11656 3 -16.542036 36.407888 6.700000
11657 3 -16.125320 35.701855 6.700000
11658 3 -15.332783 38.549594 6.700000
11659 3 -14.916067 37.843562 6.700000
11660 3 -14.123529 40.691301 6.700000
11661 3 -13.706814 39.985268 6.700000
11662 3 -12.914276 42.833007 6.700000
11663 3 -12.497561 42.126975 6.700000
11664 3 -11.705023 44.974714 6.700000
11665 3 -11.288308 44.268681 6.700000
11666 3 -10.495770 47.116420 6.700000
11667 3 -10.079055 46.410388 6.700000
11668 3 -9.286517 49.258127 6.700000
11669 3 -8.869801 48.552094 6.700000
11670 3 -8.077263 51.399833 6.700000
11671 3 -7.660548 50.693801 6.700000
11672 3 -6.868010 53.541540 6.700000
11673 3 -6.451295 52.835507 6.700000
11674 3 -5.658757 55.683246 6.700000
11675 3 -5.242042 54.977214 6.700000
11676 3 -4.449504 57.824953 6.700000
11677 3 -4.032789 57.118920 6.700000
11678 3 -60.034258 -44.953350 6.700000
11679 3 -59.617543 -45.659382 6.700000
11680 3 -58.825005 -42.811643 6.700000
11681 3 -58.408290 -43.517676 6.700000
11682 3 -57.615752 -40.669937 6.700000
11683 3 -57.199037 -41.375969 6.700000
11684 3 -56.406499 -38.528230 6.700000
11685 3 -55.989784 -39.234263 6.700000
11686 3 -55.197246 -36.386524 6.700000
11687 3 -54.780530 -37.092556 6.700000
11688 3 -53.987992 -34.244817 6.700000
11689 3 -53.571277 -34.950850 6.700000
11690 3 -52.778739 -32.103111 6.700000
11691 3 -52.362024 -32.809143 6.700000
11692 3 -51.569486 -29.961404 6.700000
11693 3 -51.152771 -30.667437 6.700000
11694 3 -50.360233 -27.819698 6.700000
11695 3 -49.943518 -28.525730 6.700000
11696 3 -49.150980 -25.677991 6.700000
11697 3 -48.734264 -26.384024 6.700000
11698 3 -47.941726 -23.536285 6.700000
11699 3 -47.525011 -24.242317 6.700000
11700 3 -46.732473 -21.394578 6.700000
11701 3 -46.315758 -22.100611 6.700000
11702 3 -45.523220 -19.252872 6.700000
11703 3 -45.106505 -19.958904 6.700000
11704 3 -44.313967 -17.111165 6.700000
11705 3 -43.897252 -17.817198 6.700000
11706 3 -43.104714 -14.969459 6.700000
11707 3 -42.687998 -15.675491 6.700000
11708 3 -41.895460 -12.827752 6.700000
11709 3 -41.478745 -13.533785 6.700000
11710 3 -40.686207 -10.686046 6.700000
11711 3 -40.269492 -11.392078 6.700000
11712 3 -39.476954 -8.544339 6.700000
11713 3 -39.060239 -9.250372 6.700000
11714 3 -38.267701 -6.402633 6.700000
11715 3 -37.850986 -7.108665 6.700000
11716 3 -37.058448 -4.260926 6.700000
11717 3 -36.641732 -4.966959 6.700000
11718 3 -35.849194 -2.119220 6.700000
11719 3 -35.432479 -2.825252 6.700000
11720 3 -34.639941 0.022487 6.700000
11721 3 -34.223226 -0.683546 6.700000
11722 3 -33.430688 2.164193 6.700000
11723 3 -33.013973 1.458161 6.700000
11724 3 -32.221435 4.305900 6.700000
11725 3 -31.804720 3.599867 6.700000
11726 3 -31.012182 6.447606 6.700000
11727 3 -30.595466 5.741574 6.700000
11728 3 -29.802928 8.589313 6.700000
11729 3 -29.386213 7.883280 6.700000
11730 3 -28.593675 10.731019 6.700000
11731 3 -28.176960 10.024987 6.700000
11732 3 -27.384422 12.872726 6.700000
11733 3 -26.967707 12.166693 6.700000
11734 3 -26.175169 15.014432 6.700000
11735 3 -25.758454 14.308400 6.700000
11736 3 -24.965916 17.156139 6.700000
11737 3 -24.549200 16.450106 6.700000
11738 3 -23.756662 19.297845 6.700000
11739 3 -23.339947 18.591813 6.700000
11740 3 -22.547409 21.439552 6.700000
11741 3 -22.130694 20.733519 6.700000
11742 3 -21.338156 23.581258 6.700000
11743 3 -20.921441 22.875226 6.700000
11744 3 -20.128903 25.722965 6.700000
11745 3 -19.712188 25.016932 6.700000
11746 3 -18.919650 27.864671 6.700000
11747 3 -18.502934 27.158639 6.700000
11748 3 -17.710396 30.006377 6.700000
11749 3 -17.293681 29.300345 6.700000
11750 3 -16.501143 32.148084 6.700000
11751 3 -16.084428 31.442052 6.700000
11752 3 -15.291890 34.289790 6.700000
11753 3 -14.875175 33.583758 6.700000
11754 3 -14.082637 36.431497 6.700000
11755 3 -13.665922 35.725465 6.700000
11756 3 -12.873384 38.573203 6.700000
11757 3 -12.456668 37.867171 6.700000
11758 3 -11.664130 40.714910 6.700000
11759 3 -11.247415 40.008878 6.700000
11760 3 -10.454877 42.856616 6.700000
11761 3 -10.038162 42.150584 6.700000
11762 3 -9.245624 44.998323 6.700000
11763 3 -8.828909 44.292291 6.700000
11764 3 -8.036371 47.140029 6.700000
11765 3 -7.619656 46.433997 6.700000
11766 3 -6.827118 49.281736 6.700000
11767 3 -6.410402 48.575704 6.700000
11768 3 -5.617865 51.423442 6.700000
11769 3 -5.201149 50.717410 6.700000
11770 3 -4.408611 53.565149 6.700000
11771 3 -3.991896 52.859117 6.700000
11772 3 -3.199358 55.706855 6.700000
11773 3 -2.782643 55.000823 6.700000
11774 3 -1.990105 57.848562 6.700000
11775 3 -1.573390 57.142530 6.700000
11776 3 -58.784113 -47.071447 6.700000
11777 3 -58.367398 -47.777479 6.700000
11778 3 -57.574860 -44.929741 6.700000
11779 3 -57.158144 -45.635773 6.700000
11780 3 -56.365606 -42.788034 6.700000
11781 3 -55.948891 -43.494066 6.700000
11782 3 -55.156353 -40.646328 6.700000
11783 3 -54.739638 -41.352360 6.700000
11784 3 -53.947100 -38.504621 6.700000
11785 3 -53.530385 -39.210653 6.700000
11786 3 -52.737847 -36.362915 6.700000
11787 3 -52.321132 -37.068947 6.700000
11788 3 -51.528594 -34.221208 6.700000
11789 3 -51.111878 -34.927240 6.700000
11790 3 -50.319340 -32.079502 6.700000
11791 3 -49.902625 -32.785534 6.700000
11792 3 -49.110087 -29.937795 6.700000
11793 3 -48.693372 -30.643827 6.700000
11794 3 -47.900834 -27.796089 6.700000
11795 3 -47.484119 -28.502121 6.700000
11796 3 -46.691581 -25.654382 6.700000
11797 3 -46.274866 -26.360415 6.700000
11798 3 -45.482328 -23.512676 6.700000
11799 3 -45.065612 -24.218708 6.700000
11800 3 -44.273074 -21.370969 6.700000
11801 3 -43.856359 -22.077002 6.700000
11802 3 -43.063821 -19.229263 6.700000
11803 3 -42.647106 -19.935295 6.700000
11804 3 -41.854568 -17.087556 6.700000
11805 3 -41.437853 -17.793589 6.700000
11806 3 -40.645315 -14.945850 6.700000
11807 3 -40.228600 -15.651882 6.700000
11808 3 -39.436062 -12.804143 6.700000
11809 3 -39.019346 -13.510176 6.700000
11810 3 -38.226808 -10.662437 6.700000
11811 3 -37.810093 -11.368469 6.700000
11812 3 -37.017555 -8.520730 6.700000
11813 3 -36.600840 -9.226763 6.700000
11814 3 -35.808302 -6.379024 6.700000
11815 3 -35.391587 -7.085056 6.700000
11816 3 -34.599049 -4.237317 6.700000
11817 3 -34.182334 -4.943350 6.700000
11818 3 -33.389796 -2.095611 6.700000
11819 3 -32.973080 -2.801643 6.700000
11820 3 -32.180542 0.046096 6.700000
11821 3 -31.763827 -0.659937 6.700000
11822 3 -30.971289 2.187802 6.700000
11823 3 -30.554574 1.481770 6.700000
11824 3 -29.762036 4.329509 6.700000
11825 3 -29.345321 3.623476 6.700000
11826 3 -28.552783 6.471215 6.700000
11827 3 -28.136068 5.765183 6.700000
11828 3 -27.343530 8.612922 6.700000
11829 3 -26.926814 7.906889 6.700000
11830 3 -26.134276 10.754628 6.700000
11831 3 -25.717561 10.048596 6.700000
11832 3 -24.925023 12.896335 6.700000
11833 3 -24.508308 12.190302 6.700000
11834 3 -23.715770 15.038041 6.700000
11835 3 -23.299055 14.332009 6.700000
11836 3 -22.506517 17.179748 6.700000
11837 3 -22.089802 16.473715 6.700000
11838 3 -21.297264 19.321454 6.700000
11839 3 -20.880548 18.615422 6.700000
11840 3 -20.088010 21.463161 6.700000
11841 3 -19.671295 20.757128 6.700000
11842 3 -18.878757 23.604867 6.700000
11843 3 -18.462042 22.898835 6.700000
11844 3 -17.669504 25.746574 6.700000
11845 3 -17.252789 25.040541 6.700000
11846 3 -16.460251 27.888280 6.700000
11847 3 -16.043536 27.182248 6.700000
11848 3 -15.250998 30.029987 6.700000
11849 3 -14.834282 29.323954 6.700000
11850 3 -14.041744 32.171693 6.700000
11851 3 -13.625029 31.465661 6.700000
11852 3 -12.832491 34.313400 6.700000
11853 3 -12.415776 33.607367 6.700000
11854 3 -11.623238 36.455106 6.700000
11855 3 -11.206523 35.749074 6.700000
11856 3 -10.413985 38.596813 6.700000
11857 3 -9.997270 37.890780 6.700000
11858 3 -9.204732 40.738519 6.700000
11859 3 -8.788016 40.032487 6.700000
11860 3 -7.995478 42.880226 6.700000
11861 3 -7.578763 42.174193 6.700000
11862 3 -6.786225 45.021932 6.700000
11863 3 -6.369510 44.315900 6.700000
11864 3 -5.576972 47.163639 6.700000
11865 3 -5.160257 46.457606 6.700000
11866 3 -4.367719 49.305345 6.700000
11867 3 -3.951004 48.599313 6.700000
11868 3 -3.158466 51.447052 6.700000
11869 3 -2.741750 50.741019 6.700000
11870 3 -1.949212 53.588758 6.700000
11871 3 -1.532497 52.882726 6.700000
11872 3 -0.739959 55.730465 6.700000
11873 3 -0.323244 55.024432 6.700000
11874 3 0.469294 57.872171 6.700000
11875 3 0.886009 57.166139 6.700000
11876 3 -57.533967 -49.189544 6.700000
11877 3 -57.117252 -49.895577 6.700000
11878 3 -56.324714 -47.047838 6.700000
11879 3 -55.907999 -47.753870 6.700000
11880 3 -55.115461 -44.906131 6.700000
11881 3 -54.698745 -45.612164 6.700000
11882 3 -53.906207 -42.764425 6.700000
11883 3 -53.489492 -43.470457 6.700000
11884 3 -52.696954 -40.622718 6.700000
11885 3 -52.280239 -41.328751 6.700000
11886 3 -51.487701 -38.481012 6.700000
11887 3 -51.070986 -39.187044 6.700000
11888 3 -50.278448 -36.339305 6.700000
11889 3 -49.861733 -37.045338 6.700000
11890 3 -49.069195 -34.197599 6.700000
11891 3 -48.652479 -34.903631 6.700000
11892 3 -47.859942 -32.055892 6.700000
11893 3 -47.443226 -32.761925 6.700000
11894 3 -46.650688 -29.914186 6.700000
11895 3 -46.233973 -30.620218 6.700000
11896 3 -45.441435 -27.772479 6.700000
11897 3 -45.024720 -28.478512 6.700000
11898 3 -44.232182 -25.630773 6.700000
11899 3 -43.815467 -26.336805 6.700000
11900 3 -43.022929 -23.489066 6.700000
11901 3 -42.606214 -24.195099 6.700000
11902 3 -41.813676 -21.347360 6.700000
11903 3 -41.396960 -22.053392 6.700000
11904 3 -40.604422 -19.205653 6.700000
11905 3 -40.187707 -19.911686 6.700000
11906 3 -39.395169 -17.063947 6.700000
11907 3 -38.978454 -17.769979 6.700000
11908 3 -38.185916 -14.922240 6.700000
11909 3 -37.769201 -15.628273 6.700000
11910 3 -36.976663 -12.780534 6.700000
11911 3 -36.559948 -13.486566 6.700000
11912 3 -35.767410 -10.638827 6.700000
11913 3 -35.350694 -11.344860 6.700000
11914 3 -34.558156 -8.497121 6.700000
11915 3 -34.141441 -9.203153 6.700000
11916 3 -33.348903 -6.355414 6.700000
11917 3 -32.932188 -7.061447 6.700000
11918 3 -32.139650 -4.213708 6.700000
11919 3 -31.722935 -4.919740 6.700000
11920 3 -30.930397 -2.072001 6.700000
11921 3 -30.513682 -2.778034 6.700000
11922 3 -29.721144 0.069705 6.700000
11923 3 -29.304428 -0.636327 6.700000
11924 3 -28.511890 2.211412 6.700000
11925 3 -28.095175 1.505379 6.700000
11926 3 -27.302637 4.353118 6.700000
11927 3 -26.885922 3.647086 6.700000
11928 3 -26.093384 6.494825 6.700000
11929 3 -25.676669 5.788792 6.700000
11930 3 -24.884131 8.636531 6.700000
11931 3 -24.467416 7.930499 6.700000
11932 3 -23.674878 10.778238 6.700000
11933 3 -23.258162 10.072205 6.700000
11934 3 -22.465624 12.919944 6.700000
11935 3 -22.048909 12.213912 6.700000
11936 3 -21.256371 15.061651 6.700000
11937 3 -20.839656 14.355618 6.700000
11938 3 -20.047118 17.203357 6.700000
11939 3 -19.630403 16.497325 6.700000
11940 3 -18.837865 19.345064 6.700000
11941 3 -18.421150 18.639031 6.700000
11942 3 -17.628612 21.486770 6.700000
11943 3 -17.211896 20.780738 6.700000
11944 3 -16.419358 23.628477 6.700000
11945 3 -16.002643 22.922444 6.700000
11946 3 -15.210105 25.770183 6.700000
11947 3 -14.793390 25.064151 6.700000
11948 3 -14.000852 27.911890 6.700000
11949 3 -13.584137 27.205857 6.700000
11950 3 -12.791599 30.053596 6.700000
11951 3 -12.374884 29.347564 6.700000
11952 3 -11.582346 32.195303 6.700000
11953 3 -11.165630 31.489270 6.700000
11954 3 -10.373092 34.337009 6.700000
11955 3 -9.956377 33.630977 6.700000
11956 3 -9.163839 36.478715 6.700000
11957 3 -8.747124 35.772683 6.700000
11958 3 -7.954586 38.620422 6.700000
11959 3 -7.537871 37.914390 6.700000
11960 3 -6.745333 40.762128 6.700000
11961 3 -6.328618 40.056096 6.700000
11962 3 -5.536080 42.903835 6.700000
11963 3 -5.119364 42.197803 6.700000
11964 3 -4.326826 45.045541 6.700000
11965 3 -3.910111 44.339509 6.700000
11966 3 -3.117573 47.187248 6.700000
11967 3 -2.700858 46.481216 6.700000
11968 3 -1.908320 49.328954 6.700000
11969 3 -1.491605 48.622922 6.700000
11970 3 -0.699067 51.470661 6.700000
11971 3 -0.282352 50.764629 6.700000
11972 3 0.510186 53.612367 6.700000
11973 3 0.926902 52.906335 6.700000
11974 3 1.719440 55.754074 6.700000
11975 3 2.136155 55.048042 6.700000
11976 3 2.928693 57.895780 6.700000
11977 3 3.345408 57.189748 6.700000
11978 3 -56.283821 -51.307642 6.700000
11979 3 -55.867106 -52.013674 6.700000
11980 3 -55.074568 -49.165935 6.700000
11981 3 -54.657853 -49.871967 6.700000
11982 3 -53.865315 -47.024229 6.700000
11983 3 -53.448600 -47.730261 6.700000
11984 3 -52.656062 -44.882522 6.700000
11985 3 -52.239347 -45.588554 6.700000
11986 3 -51.446809 -42.740816 6.700000
11987 3 -51.030093 -43.446848 6.700000
11988 3 -50.237555 -40.599109 6.700000
11989 3 -49.820840 -41.305141 6.700000
11990 3 -49.028302 -38.457403 6.700000
11991 3 -48.611587 -39.163435 6.700000
11992 3 -47.819049 -36.315696 6.700000
11993 3 -47.402334 -37.021728 6.700000
11994 3 -46.609796 -34.173990 6.700000
11995 3 -46.193081 -34.880022 6.700000
11996 3 -45.400543 -32.032283 6.700000
11997 3 -44.983827 -32.738315 6.700000
11998 3 -44.191289 -29.890577 6.700000
11999 3 -43.774574 -30.596609 6.700000
12000 3 -42.982036 -27.748870 6.700000
12001 3 -42.565321 -28.454902 6.700000
12002 3 -41.772783 -25.607164 6.700000
12003 3 -41.356068 -26.313196 6.700000
12004 3 -40.563530 -23.465457 6.700000
12005 3 -40.146815 -24.171489 6.700000
12006 3 -39.354277 -21.323751 6.700000
12007 3 -38.937561 -22.029783 6.700000
12008 3 -38.145024 -19.182044 6.700000
12009 3 -37.728308 -19.888077 6.700000
12010 3 -36.935770 -17.040338 6.700000
12011 3 -36.519055 -17.746370 6.700000
12012 3 -35.726517 -14.898631 6.700000
12013 3 -35.309802 -15.604664 6.700000
12014 3 -34.517264 -12.756925 6.700000
12015 3 -34.100549 -13.462957 6.700000
12016 3 -33.308011 -10.615218 6.700000
12017 3 -32.891296 -11.321251 6.700000
12018 3 -32.098758 -8.473512 6.700000
12019 3 -31.682042 -9.179544 6.700000
12020 3 -30.889504 -6.331805 6.700000
12021 3 -30.472789 -7.037838 6.700000
12022 3 -29.680251 -4.190099 6.700000
12023 3 -29.263536 -4.896131 6.700000
12024 3 -28.470998 -2.048392 6.700000
12025 3 -28.054283 -2.754425 6.700000
12026 3 -27.261745 0.093314 6.700000
12027 3 -26.845030 -0.612718 6.700000
12028 3 -26.052492 2.235021 6.700000
12029 3 -25.635776 1.528988 6.700000
12030 3 -24.843238 4.376727 6.700000
12031 3 -24.426523 3.670695 6.700000
12032 3 -23.633985 6.518434 6.700000
12033 3 -23.217270 5.812401 6.700000
12034 3 -22.424732 8.660140 6.700000
12035 3 -22.008017 7.954108 6.700000
12036 3 -21.215479 10.801847 6.700000
12037 3 -20.798764 10.095814 6.700000
12038 3 -20.006226 12.943553 6.700000
12039 3 -19.589510 12.237521 6.700000
12040 3 -18.796972 15.085260 6.700000
12041 3 -18.380257 14.379227 6.700000
12042 3 -17.587719 17.226966 6.700000
12043 3 -17.171004 16.520934 6.700000
12044 3 -16.378466 19.368673 6.700000
12045 3 -15.961751 18.662640 6.700000
12046 3 -15.169213 21.510379 6.700000
12047 3 -14.752498 20.804347 6.700000
12048 3 -13.959960 23.652086 6.700000
12049 3 -13.543244 22.946053 6.700000
12050 3 -12.750706 25.793792 6.700000
12051 3 -12.333991 25.087760 6.700000
12052 3 -11.541453 27.935499 6.700000
12053 3 -11.124738 27.229466 6.700000
12054 3 -10.332200 30.077205 6.700000
12055 3 -9.915485 29.371173 6.700000
12056 3 -9.122947 32.218912 6.700000
12057 3 -8.706232 31.512879 6.700000
12058 3 -7.913694 34.360618 6.700000
12059 3 -7.496978 33.654586 6.700000
12060 3 -6.704440 36.502325 6.700000
12061 3 -6.287725 35.796292 6.700000
12062 3 -5.495187 38.644031 6.700000
12063 3 -5.078472 37.937999 6.700000
12064 3 -4.285934 40.785738 6.700000
12065 3 -3.869219 40.079705 6.700000
12066 3 -3.076681 42.927444 6.700000
12067 3 -2.659966 42.221412 6.700000
12068 3 -1.867428 45.069151 6.700000
12069 3 -1.450712 44.363118 6.700000
12070 3 -0.658174 47.210857 6.700000
12071 3 -0.241459 46.504825 6.700000
12072 3 0.551079 49.352564 6.700000
12073 3 0.967794 48.646531 6.700000
12074 3 1.760332 51.494270 6.700000
12075 3 2.177047 50.788238 6.700000
12076 3 2.969585 53.635977 6.700000
12077 3 3.386300 52.929944 6.700000
12078 3 4.178838 55.777683 6.700000
12079 3 4.595554 55.071651 6.700000
12080 3 5.388092 57.919390 6.700000
12081 3 5.804807 57.213357 6.700000
12082 3 -55.033676 -53.425739 6.700000
12083 3 -53.824423 -51.284032 6.700000
12084 3 -53.407707 -51.990065 6.700000
12085 3 -52.615169 -49.142326 6.700000
12086 3 -52.198454 -49.848358 6.700000
12087 3 -51.405916 -47.000619 6.700000
12088 3 -50.989201 -47.706652 6.700000
12089 3 -50.196663 -44.858913 6.700000
12090 3 -49.779948 -45.564945 6.700000
12091 3 -48.987410 -42.717206 6.700000
12092 3 -48.570695 -43.423239 6.700000
12093 3 -47.778157 -40.575500 6.700000
12094 3 -47.361441 -41.281532 6.700000
12095 3 -46.568903 -38.433793 6.700000
12096 3 -46.152188 -39.139826 6.700000
12097 3 -45.359650 -36.292087 6.700000
12098 3 -44.942935 -36.998119 6.700000
12099 3 -44.150397 -34.150380 6.700000
12100 3 -43.733682 -34.856413 6.700000
12101 3 -42.941144 -32.008674 6.700000
12102 3 -42.524429 -32.714706 6.700000
12103 3 -41.731891 -29.866967 6.700000
12104 3 -41.315175 -30.573000 6.700000
12105 3 -40.522637 -27.725261 6.700000
12106 3 -40.105922 -28.431293 6.700000
12107 3 -39.313384 -25.583554 6.700000
12108 3 -38.896669 -26.289587 6.700000
12109 3 -38.104131 -23.441848 6.700000
12110 3 -37.687416 -24.147880 6.700000
12111 3 -36.894878 -21.300141 6.700000
12112 3 -36.478163 -22.006174 6.700000
12113 3 -35.685625 -19.158435 6.700000
12114 3 -35.268909 -19.864467 6.700000
12115 3 -34.476371 -17.016728 6.700000
12116 3 -34.059656 -17.722761 6.700000
12117 3 -33.267118 -14.875022 6.700000
12118 3 -32.850403 -15.581054 6.700000
12119 3 -32.057865 -12.733315 6.700000
12120 3 -31.641150 -13.439348 6.700000
12121 3 -30.848612 -10.591609 6.700000
12122 3 -30.431897 -11.297641 6.700000
12123 3 -29.639359 -8.449902 6.700000
12124 3 -29.222643 -9.155935 6.700000
12125 3 -28.430105 -6.308196 6.700000
12126 3 -28.013390 -7.014228 6.700000
12127 3 -27.220852 -4.166489 6.700000
12128 3 -26.804137 -4.872522 6.700000
12129 3 -26.011599 -2.024783 6.700000
12130 3 -25.594884 -2.730815 6.700000
12131 3 -24.802346 0.116924 6.700000
12132 3 -24.385631 -0.589109 6.700000
12133 3 -23.593093 2.258630 6.700000
12134 3 -23.176377 1.552598 6.700000
12135 3 -22.383840 4.400337 6.700000
12136 3 -21.967124 3.694304 6.700000
12137 3 -21.174586 6.542043 6.700000
12138 3 -20.757871 5.836011 6.700000
12139 3 -19.965333 8.683750 6.700000
12140 3 -19.548618 7.977717 6.700000
12141 3 -18.756080 10.825456 6.700000
12142 3 -18.339365 10.119424 6.700000
12143 3 -17.546827 12.967163 6.700000
12144 3 -17.130112 12.261130 6.700000
12145 3 -16.337574 15.108869 6.700000
12146 3 -15.920858 14.402837 6.700000
12147 3 -15.128320 17.250576 6.700000
12148 3 -14.711605 16.544543 6.700000
12149 3 -13.919067 19.392282 6.700000
12150 3 -13.502352 18.686250 6.700000
12151 3 -12.709814 21.533989 6.700000
12152 3 -12.293099 20.827956 6.700000
12153 3 -11.500561 23.675695 6.700000
12154 3 -11.083846 22.969663 6.700000
12155 3 -10.291308 25.817402 6.700000
12156 3 -9.874592 25.111369 6.700000
12157 3 -9.082054 27.959108 6.700000
12158 3 -8.665339 27.253076 6.700000
12159 3 -7.872801 30.100815 6.700000
12160 3 -7.456086 29.394782 6.700000
12161 3 -6.663548 32.242521 6.700000
12162 3 -6.246833 31.536489 6.700000
12163 3 -5.454295 34.384228 6.700000
12164 3 -5.037580 33.678195 6.700000
12165 3 -4.245042 36.525934 6.700000
12166 3 -3.828326 35.819902 6.700000
12167 3 -3.035788 38.667641 6.700000
12168 3 -2.619073 37.961608 6.700000
12169 3 -1.826535 40.809347 6.700000
12170 3 -1.409820 40.103315 6.700000
12171 3 -0.617282 42.951053 6.700000
12172 3 -0.200567 42.245021 6.700000
12173 3 0.591971 45.092760 6.700000
12174 3 1.008686 44.386728 6.700000
12175 3 1.801224 47.234466 6.700000
12176 3 2.217940 46.528434 6.700000
12177 3 3.010478 49.376173 6.700000
12178 3 3.427193 48.670141 6.700000
12179 3 4.219731 51.517879 6.700000
12180 3 4.636446 50.811847 6.700000
12181 3 5.428984 53.659586 6.700000
12182 3 5.845699 52.953554 6.700000
12183 3 6.638237 55.801292 6.700000
12184 3 7.054952 55.095260 6.700000
12185 3 7.847490 57.942999 6.700000
12186 3 8.264206 57.236967 6.700000
12187 3 -52.574277 -53.402129 6.700000
12188 3 -52.157562 -54.108162 6.700000
12189 3 -51.365024 -51.260423 6.700000
12190 3 -50.948309 -51.966455 6.700000
12191 3 -50.155771 -49.118716 6.700000
12192 3 -49.739055 -49.824749 6.700000
12193 3 -48.946517 -46.977010 6.700000
12194 3 -48.529802 -47.683042 6.700000
12195 3 -47.737264 -44.835304 6.700000
12196 3 -47.320549 -45.541336 6.700000
12197 3 -46.528011 -42.693597 6.700000
12198 3 -46.111296 -43.399629 6.700000
12199 3 -45.318758 -40.551891 6.700000
12200 3 -44.902043 -41.257923 6.700000
12201 3 -44.109505 -38.410184 6.700000
12202 3 -43.692789 -39.116216 6.700000
12203 3 -42.900251 -36.268478 6.700000
12204 3 -42.483536 -36.974510 6.700000
12205 3 -41.690998 -34.126771 6.700000
12206 3 -41.274283 -34.832803 6.700000
12207 3 -40.481745 -31.985065 6.700000
12208 3 -40.065030 -32.691097 6.700000
12209 3 -39.272492 -29.843358 6.700000
12210 3 -38.855777 -30.549390 6.700000
12211 3 -38.063239 -27.701652 6.700000
12212 3 -37.646523 -28.407684 6.700000
12213 3 -36.853985 -25.559945 6.700000
12214 3 -36.437270 -26.265977 6.700000
12215 3 -35.644732 -23.418239 6.700000
12216 3 -35.228017 -24.124271 6.700000
12217 3 -34.435479 -21.276532 6.700000
12218 3 -34.018764 -21.982564 6.700000
12219 3 -33.226226 -19.134826 6.700000
12220 3 -32.809511 -19.840858 6.700000
12221 3 -32.016973 -16.993119 6.700000
12222 3 -31.600257 -17.699151 6.700000
12223 3 -30.807719 -14.851413 6.700000
12224 3 -30.391004 -15.557445 6.700000
12225 3 -29.598466 -12.709706 6.700000
12226 3 -29.181751 -13.415739 6.700000
12227 3 -28.389213 -10.568000 6.700000
12228 3 -27.972498 -11.274032 6.700000
12229 3 -27.179960 -8.426293 6.700000
12230 3 -26.763245 -9.132326 6.700000
12231 3 -25.970707 -6.284587 6.700000
12232 3 -25.553991 -6.990619 6.700000
12233 3 -24.761453 -4.142880 6.700000
12234 3 -24.344738 -4.848913 6.700000
12235 3 -23.552200 -2.001174 6.700000
12236 3 -23.135485 -2.707206 6.700000
12237 3 -22.342947 0.140533 6.700000
12238 3 -21.926232 -0.565500 6.700000
12239 3 -21.133694 2.282239 6.700000
12240 3 -20.716979 1.576207 6.700000
12241 3 -19.924441 4.423946 6.700000
12242 3 -19.507725 3.717913 6.700000
12243 3 -18.715187 6.565652 6.700000
12244 3 -18.298472 5.859620 6.700000
12245 3 -17.505934 8.707359 6.700000
12246 3 -17.089219 8.001326 6.700000
12247 3 -16.296681 10.849065 6.700000
12248 3 -15.879966 10.143033 6.700000
12249 3 -15.087428 12.990772 6.700000
12250 3 -14.670713 12.284739 6.700000
12251 3 -13.878175 15.132478 6.700000
12252 3 -13.461459 14.426446 6.700000
12253 3 -12.668921 17.274185 6.700000
12254 3 -12.252206 16.568152 6.700000
12255 3 -11.459668 19.415891 6.700000
12256 3 -11.042953 18.709859 6.700000
12257 3 -10.250415 21.557598 6.700000
12258 3 -9.833700 20.851565 6.700000
12259 3 -9.041162 23.699304 6.700000
12260 3 -8.624447 22.993272 6.700000
12261 3 -7.831909 25.841011 6.700000
12262 3 -7.415194 25.134978 6.700000
12263 3 -6.622656 27.982717 6.700000
12264 3 -6.205940 27.276685 6.700000
12265 3 -5.413402 30.124424 6.700000
12266 3 -4.996687 29.418391 6.700000
12267 3 -4.204149 32.266130 6.700000
12268 3 -3.787434 31.560098 6.700000
12269 3 -2.994896 34.407837 6.700000
12270 3 -2.578181 33.701804 6.700000
12271 3 -1.785643 36.549543 6.700000
12272 3 -1.368928 35.843511 6.700000
12273 3 -0.576390 38.691250 6.700000
12274 3 -0.159674 37.985217 6.700000
12275 3 0.632864 40.832956 6.700000
12276 3 1.049579 40.126924 6.700000
12277 3 1.842117 42.974663 6.700000
12278 3 2.258832 42.268630 6.700000
12279 3 3.051370 45.116369 6.700000
12280 3 3.468085 44.410337 6.700000
12281 3 4.260623 47.258076 6.700000
12282 3 4.677338 46.552043 6.700000
12283 3 5.469876 49.399782 6.700000
12284 3 5.886592 48.693750 6.700000
12285 3 6.679130 51.541489 6.700000
12286 3 7.095845 50.835456 6.700000
12287 3 7.888383 53.683195 6.700000
12288 3 8.305098 52.977163 6.700000
12289 3 9.097636 55.824902 6.700000
12290 3 9.514351 55.118869 6.700000
12291 3 10.306889 57.966608 6.700000
12292 3 10.723604 57.260576 6.700000
12293 3 -51.324131 -55.520227 6.700000
12294 3 -50.907416 -56.226259 6.700000
12295 3 -50.114878 -53.378520 6.700000
12296 3 -49.698163 -54.084553 6.700000
12297 3 -48.905625 -51.236814 6.700000
12298 3 -48.488910 -51.942846 6.700000
12299 3 -47.696372 -49.095107 6.700000
12300 3 -47.279657 -49.801140 6.700000
12301 3 -46.487119 -46.953401 6.700000
12302 3 -46.070403 -47.659433 6.700000
12303 3 -45.277865 -44.811694 6.700000
12304 3 -44.861150 -45.517727 6.700000
12305 3 -44.068612 -42.669988 6.700000
12306 3 -43.651897 -43.376020 6.700000
12307 3 -42.859359 -40.528281 6.700000
12308 3 -42.442644 -41.234314 6.700000
12309 3 -41.650106 -38.386575 6.700000
12310 3 -41.233391 -39.092607 6.700000
12311 3 -40.440853 -36.244868 6.700000
12312 3 -40.024137 -36.950901 6.700000
12313 3 -39.231599 -34.103162 6.700000
12314 3 -38.814884 -34.809194 6.700000
12315 3 -38.022346 -31.961455 6.700000
12316 3 -37.605631 -32.667488 6.700000
12317 3 -36.813093 -29.819749 6.700000
12318 3 -36.396378 -30.525781 6.700000
12319 3 -35.603840 -27.678042 6.700000
12320 3 -35.187125 -28.384075 6.700000
12321 3 -34.394587 -25.536336 6.700000
12322 3 -33.977871 -26.242368 6.700000
12323 3 -33.185333 -23.394629 6.700000
12324 3 -32.768618 -24.100662 6.700000
12325 3 -31.976080 -21.252923 6.700000
12326 3 -31.559365 -21.958955 6.700000
12327 3 -30.766827 -19.111216 6.700000
12328 3 -30.350112 -19.817249 6.700000
12329 3 -29.557574 -16.969510 6.700000
12330 3 -29.140859 -17.675542 6.700000
12331 3 -28.348321 -14.827803 6.700000
12332 3 -27.931605 -15.533836 6.700000
12333 3 -27.139067 -12.686097 6.700000
12334 3 -26.722352 -13.392129 6.700000
12335 3 -25.929814 -10.544390 6.700000
12336 3 -25.513099 -11.250423 6.700000
12337 3 -24.720561 -8.402684 6.700000
12338 3 -24.303846 -9.108716 6.700000
12339 3 -23.511308 -6.260977 6.700000
12340 3 -23.094593 -6.967010 6.700000
12341 3 -22.302055 -4.119271 6.700000
12342 3 -21.885339 -4.825303 6.700000
12343 3 -21.092801 -1.977564 6.700000
12344 3 -20.676086 -2.683597 6.700000
12345 3 -19.883548 0.164142 6.700000
12346 3 -19.466833 -0.541890 6.700000
12347 3 -18.674295 2.305849 6.700000
12348 3 -18.257580 1.599816 6.700000
12349 3 -17.465042 4.447555 6.700000
12350 3 -17.048327 3.741523 6.700000
12351 3 -16.255789 6.589262 6.700000
12352 3 -15.839073 5.883229 6.700000
12353 3 -15.046535 8.730968 6.700000
12354 3 -14.629820 8.024936 6.700000
12355 3 -13.837282 10.872675 6.700000
12356 3 -13.420567 10.166642 6.700000
12357 3 -12.628029 13.014381 6.700000
12358 3 -12.211314 12.308349 6.700000
12359 3 -11.418776 15.156088 6.700000
12360 3 -11.002061 14.450055 6.700000
12361 3 -10.209523 17.297794 6.700000
12362 3 -9.792807 16.591762 6.700000
12363 3 -9.000269 19.439501 6.700000
12364 3 -8.583554 18.733468 6.700000
12365 3 -7.791016 21.581207 6.700000
12366 3 -7.374301 20.875175 6.700000
12367 3 -6.581763 23.722914 6.700000
12368 3 -6.165048 23.016881 6.700000
12369 3 -5.372510 25.864620 6.700000
12370 3 -4.955795 25.158588 6.700000
12371 3 -4.163257 28.006327 6.700000
12372 3 -3.746541 27.300294 6.700000
12373 3 -2.954003 30.148033 6.700000
12374 3 -2.537288 29.442001 6.700000
12375 3 -1.744750 32.289740 6.700000
12376 3 -1.328035 31.583707 6.700000
12377 3 -0.535497 34.431446 6.700000
12378 3 -0.118782 33.725414 6.700000
12379 3 0.673756 36.573153 6.700000
12380 3 1.090471 35.867120 6.700000
12381 3 1.883009 38.714859 6.700000
12382 3 2.299725 38.008827 6.700000
12383 3 3.092262 40.856566 6.700000
12384 3 3.508978 40.150533 6.700000
12385 3 4.301516 42.998272 6.700000
12386 3 4.718231 42.292240 6.700000
12387 3 5.510769 45.139979 6.700000
12388 3 5.927484 44.433946 6.700000
12389 3 6.720022 47.281685 6.700000
12390 3 7.136737 46.575653 6.700000
12391 3 7.929275 49.423391 6.700000
12392 3 8.345990 48.717359 6.700000
12393 3 9.138528 51.565098 6.700000
12394 3 9.555244 50.859066 6.700000
12395 3 10.347782 53.706804 6.700000
12396 3 10.764497 53.000772 6.700000
12397 3 11.557035 55.848511 6.700000
12398 3 11.973750 55.142479 6.700000
12399 3 12.766288 57.990217 6.700000
12400 3 13.183003 57.284185 6.700000
12401 3 -50.073986 -57.638324 6.700000
12402 3 -49.657271 -58.344356 6.700000
12403 3 -48.864733 -55.496617 6.700000
12404 3 -48.448017 -56.202650 6.700000
12405 3 -47.655479 -53.354911 6.700000
12406 3 -47.238764 -54.060943 6.700000
12407 3 -46.446226 -51.213204 6.700000
12408 3 -46.029511 -51.919237 6.700000
12409 3 -45.236973 -49.071498 6.700000
12410 3 -44.820258 -49.777530 6.700000
12411 3 -44.027720 -46.929791 6.700000
12412 3 -43.611005 -47.635824 6.700000
12413 3 -42.818467 -44.788085 6.700000
12414 3 -42.401751 -45.494117 6.700000
12415 3 -41.609213 -42.646378 6.700000
12416 3 -41.192498 -43.352411 6.700000
12417 3 -40.399960 -40.504672 6.700000
12418 3 -39.983245 -41.210704 6.700000
12419 3 -39.190707 -38.362966 6.700000
12420 3 -38.773992 -39.068998 6.700000
12421 3 -37.981454 -36.221259 6.700000
12422 3 -37.564739 -36.927291 6.700000
12423 3 -36.772201 -34.079553 6.700000
12424 3 -36.355485 -34.785585 6.700000
12425 3 -35.562947 -31.937846 6.700000
12426 3 -35.146232 -32.643878 6.700000
12427 3 -34.353694 -29.796140 6.700000
12428 3 -33.936979 -30.502172 6.700000
12429 3 -33.144441 -27.654433 6.700000
12430 3 -32.727726 -28.360465 6.700000
12431 3 -31.935188 -25.512727 6.700000
12432 3 -31.518473 -26.218759 6.700000
12433 3 -30.725935 -23.371020 6.700000
12434 3 -30.309219 -24.077052 6.700000
12435 3 -29.516681 -21.229314 6.700000
12436 3 -29.099966 -21.935346 6.700000
12437 3 -28.307428 -19.087607 6.700000
12438 3 -27.890713 -19.793639 6.700000
12439 3 -27.098175 -16.945901 6.700000
12440 3 -26.681460 -17.651933 6.700000
12441 3 -25.888922 -14.804194 6.700000
12442 3 -25.472207 -15.510226 6.700000
12443 3 -24.679669 -12.662488 6.700000
12444 3 -24.262953 -13.368520 6.700000
12445 3 -23.470415 -10.520781 6.700000
12446 3 -23.053700 -11.226813 6.700000
12447 3 -22.261162 -8.379075 6.700000
12448 3 -21.844447 -9.085107 6.700000
12449 3 -21.051909 -6.237368 6.700000
12450 3 -20.635194 -6.943401 6.700000
12451 3 -19.842656 -4.095662 6.700000
12452 3 -19.425941 -4.801694 6.700000
12453 3 -18.633403 -1.953955 6.700000
12454 3 -18.216687 -2.659988 6.700000
12455 3 -17.424149 0.187751 6.700000
12456 3 -17.007434 -0.518281 6.700000
12457 3 -16.214896 2.329458 6.700000
12458 3 -15.798181 1.623425 6.700000
12459 3 -15.005643 4.471164 6.700000
12460 3 -14.588928 3.765132 6.700000
12461 3 -13.796390 6.612871 6.700000
12462 3 -13.379675 5.906838 6.700000
12463 3 -12.587137 8.754577 6.700000
12464 3 -12.170421 8.048545 6.700000
12465 3 -11.377883 10.896284 6.700000
12466 3 -10.961168 10.190251 6.700000
12467 3 -10.168630 13.037990 6.700000
12468 3 -9.751915 12.331958 6.700000
12469 3 -8.959377 15.179697 6.700000
12470 3 -8.542662 14.473664 6.700000
12471 3 -7.750124 17.321403 6.700000
12472 3 -7.333409 16.615371 6.700000
12473 3 -6.540871 19.463110 6.700000
12474 3 -6.124155 18.757077 6.700000
12475 3 -5.331617 21.604816 6.700000
12476 3 -4.914902 20.898784 6.700000
12477 3 -4.122364 23.746523 6.700000
12478 3 -3.705649 23.040490 6.700000
12479 3 -2.913111 25.888229 6.700000
12480 3 -2.496396 25.182197 6.700000
12481 3 -1.703858 28.029936 6.700000
12482 3 -1.287143 27.323903 6.700000
12483 3 -0.494605 30.171642 6.700000
12484 3 -0.077889 29.465610 6.700000
12485 3 0.714649 32.313349 6.700000
12486 3 1.131364 31.607316 6.700000
12487 3 1.923902 34.455055 6.700000
12488 3 2.340617 33.749023 6.700000
12489 3 3.133155 36.596762 6.700000
12490 3 3.549870 35.890729 6.700000
12491 3 4.342408 38.738468 6.700000
12492 3 4.759123 38.032436 6.700000
12493 3 5.551661 40.880175 6.700000
12494 3 5.968377 40.174142 6.700000
12495 3 6.760915 43.021881 6.700000
12496 3 7.177630 42.315849 6.700000
12497 3 7.970168 45.163588 6.700000
12498 3 8.386883 44.457555 6.700000
12499 3 9.179421 47.305294 6.700000
12500 3 9.596136 46.599262 6.700000
12501 3 10.388674 49.447001 6.700000
12502 3 10.805389 48.740968 6.700000
12503 3 11.597927 51.588707 6.700000
12504 3 12.014643 50.882675 6.700000
12505 3 12.807181 53.730414 6.700000
12506 3 13.223896 53.024381 6.700000
12507 3 14.016434 55.872120 6.700000
12508 3 14.433149 55.166088 6.700000
12509 3 15.225687 58.013827 6.700000
12510 3 15.642402 57.307794 6.700000
12511 3 -47.614587 -57.614715 6.700000
12512 3 -47.197872 -58.320747 6.700000
12513 3 -46.405334 -55.473008 6.700000
12514 3 -45.988618 -56.179041 6.700000
12515 3 -45.196080 -53.331302 6.700000
12516 3 -44.779365 -54.037334 6.700000
12517 3 -43.986827 -51.189595 6.700000
12518 3 -43.570112 -51.895628 6.700000
12519 3 -42.777574 -49.047889 6.700000
12520 3 -42.360859 -49.753921 6.700000
12521 3 -41.568321 -46.906182 6.700000
12522 3 -41.151606 -47.612215 6.700000
12523 3 -40.359068 -44.764476 6.700000
12524 3 -39.942353 -45.470508 6.700000
12525 3 -39.149815 -42.622769 6.700000
12526 3 -38.733099 -43.328802 6.700000
12527 3 -37.940561 -40.481063 6.700000
12528 3 -37.523846 -41.187095 6.700000
12529 3 -36.731308 -38.339356 6.700000
12530 3 -36.314593 -39.045389 6.700000
12531 3 -35.522055 -36.197650 6.700000
12532 3 -35.105340 -36.903682 6.700000
12533 3 -34.312802 -34.055943 6.700000
12534 3 -33.896087 -34.761976 6.700000
12535 3 -33.103549 -31.914237 6.700000
12536 3 -32.686833 -32.620269 6.700000
12537 3 -31.894295 -29.772530 6.700000
12538 3 -31.477580 -30.478563 6.700000
12539 3 -30.685042 -27.630824 6.700000
12540 3 -30.268327 -28.336856 6.700000
12541 3 -29.475789 -25.489117 6.700000
12542 3 -29.059074 -26.195150 6.700000
12543 3 -28.266536 -23.347411 6.700000
12544 3 -27.849821 -24.053443 6.700000
12545 3 -27.057283 -21.205704 6.700000
12546 3 -26.640567 -21.911737 6.700000
12547 3 -25.848029 -19.063998 6.700000
12548 3 -25.431314 -19.770030 6.700000
12549 3 -24.638776 -16.922291 6.700000
12550 3 -24.222061 -17.628324 6.700000
12551 3 -23.429523 -14.780585 6.700000
12552 3 -23.012808 -15.486617 6.700000
12553 3 -22.220270 -12.638878 6.700000
12554 3 -21.803555 -13.344911 6.700000
12555 3 -21.011017 -10.497172 6.700000
12556 3 -20.594301 -11.203204 6.700000
12557 3 -19.801763 -8.355465 6.700000
12558 3 -19.385048 -9.061498 6.700000
12559 3 -18.592510 -6.213759 6.700000
12560 3 -18.175795 -6.919791 6.700000
12561 3 -17.383257 -4.072052 6.700000
12562 3 -16.966542 -4.778085 6.700000
12563 3 -16.174004 -1.930346 6.700000
12564 3 -15.757289 -2.636378 6.700000
12565 3 -14.964751 0.211361 6.700000
12566 3 -14.548035 -0.494672 6.700000
12567 3 -13.755497 2.353067 6.700000
12568 3 -13.338782 1.647035 6.700000
12569 3 -12.546244 4.494774 6.700000
12570 3 -12.129529 3.788741 6.700000
12571 3 -11.336991 6.636480 6.700000
12572 3 -10.920276 5.930448 6.700000
12573 3 -10.127738 8.778187 6.700000
12574 3 -9.711023 8.072154 6.700000
12575 3 -8.918485 10.919893 6.700000
12576 3 -8.501769 10.213861 6.700000
12577 3 -7.709231 13.061600 6.700000
12578 3 -7.292516 12.355567 6.700000
12579 3 -6.499978 15.203306 6.700000
12580 3 -6.083263 14.497274 6.700000
12581 3 -5.290725 17.345013 6.700000
12582 3 -4.874010 16.638980 6.700000
12583 3 -4.081472 19.486719 6.700000
12584 3 -3.664757 18.780687 6.700000
12585 3 -2.872219 21.628426 6.700000
12586 3 -2.455503 20.922393 6.700000
12587 3 -1.662965 23.770132 6.700000
12588 3 -1.246250 23.064100 6.700000
12589 3 -0.453712 25.911839 6.700000
12590 3 -0.036997 25.205806 6.700000
12591 3 0.755541 28.053545 6.700000
12592 3 1.172256 27.347513 6.700000
12593 3 1.964794 30.195252 6.700000
12594 3 2.381509 29.489219 6.700000
12595 3 3.174047 32.336958 6.700000
12596 3 3.590763 31.630926 6.700000
12597 3 4.383301 34.478665 6.700000
12598 3 4.800016 33.772632 6.700000
12599 3 5.592554 36.620371 6.700000
12600 3 6.009269 35.914339 6.700000
12601 3 6.801807 38.762078 6.700000
12602 3 7.218522 38.056045 6.700000
12603 3 8.011060 40.903784 6.700000
12604 3 8.427775 40.197752 6.700000
12605 3 9.220313 43.045491 6.700000
12606 3 9.637029 42.339458 6.700000
12607 3 10.429567 45.187197 6.700000
12608 3 10.846282 44.481165 6.700000
12609 3 11.638820 47.328904 6.700000
12610 3 12.055535 46.622871 6.700000
12611 3 12.848073 49.470610 6.700000
12612 3 13.264788 48.764578 6.700000
12613 3 14.057326 51.612317 6.700000
12614 3 14.474041 50.906284 6.700000
12615 3 15.266579 53.754023 6.700000
12616 3 15.683295 53.047991 6.700000
12617 3 16.475833 55.895729 6.700000
12618 3 16.892548 55.189697 6.700000
12619 3 17.685086 58.037436 6.700000
12620 3 18.101801 57.331404 6.700000
12621 3 -45.155188 -57.591105 6.700000
12622 3 -44.738473 -58.297138 6.700000
12623 3 -43.945935 -55.449399 6.700000
12624 3 -43.529220 -56.155431 6.700000
12625 3 -42.736682 -53.307692 6.700000
12626 3 -42.319966 -54.013725 6.700000
12627 3 -41.527428 -51.165986 6.700000
12628 3 -41.110713 -51.872018 6.700000
12629 3 -40.318175 -49.024279 6.700000
12630 3 -39.901460 -49.730312 6.700000
12631 3 -39.108922 -46.882573 6.700000
12632 3 -38.692207 -47.588605 6.700000
12633 3 -37.899669 -44.740866 6.700000
12634 3 -37.482954 -45.446899 6.700000
12635 3 -36.690416 -42.599160 6.700000
12636 3 -36.273700 -43.305192 6.700000
12637 3 -35.481162 -40.457453 6.700000
12638 3 -35.064447 -41.163486 6.700000
12639 3 -34.271909 -38.315747 6.700000
12640 3 -33.855194 -39.021779 6.700000
12641 3 -33.062656 -36.174040 6.700000
12642 3 -32.645941 -36.880073 6.700000
12643 3 -31.853403 -34.032334 6.700000
12644 3 -31.436688 -34.738366 6.700000
12645 3 -30.644150 -31.890628 6.700000
12646 3 -30.227434 -32.596660 6.700000
12647 3 -29.434897 -29.748921 6.700000
12648 3 -29.018181 -30.454953 6.700000
12649 3 -28.225643 -27.607215 6.700000
12650 3 -27.808928 -28.313247 6.700000
12651 3 -27.016390 -25.465508 6.700000
12652 3 -26.599675 -26.171540 6.700000
12653 3 -25.807137 -23.323802 6.700000
12654 3 -25.390422 -24.029834 6.700000
12655 3 -24.597884 -21.182095 6.700000
12656 3 -24.181169 -21.888127 6.700000
12657 3 -23.388631 -19.040389 6.700000
12658 3 -22.971915 -19.746421 6.700000
12659 3 -22.179377 -16.898682 6.700000
12660 3 -21.762662 -17.604714 6.700000
12661 3 -20.970124 -14.756976 6.700000
12662 3 -20.553409 -15.463008 6.700000
12663 3 -19.760871 -12.615269 6.700000
12664 3 -19.344156 -13.321301 6.700000
12665 3 -18.551618 -10.473563 6.700000
12666 3 -18.134903 -11.179595 6.700000
12667 3 -17.342365 -8.331856 6.700000
12668 3 -16.925649 -9.037888 6.700000
12669 3 -16.133111 -6.190150 6.700000
12670 3 -15.716396 -6.896182 6.700000
12671 3 -14.923858 -4.048443 6.700000
12672 3 -14.507143 -4.754475 6.700000
12673 3 -13.714605 -1.906737 6.700000
12674 3 -13.297890 -2.612769 6.700000
12675 3 -12.505352 0.234970 6.700000
12676 3 -12.088637 -0.471063 6.700000
12677 3 -11.296099 2.376676 6.700000
12678 3 -10.879383 1.670644 6.700000
12679 3 -10.086845 4.518383 6.700000
12680 3 -9.670130 3.812350 6.700000
12681 3 -8.877592 6.660089 6.700000
12682 3 -8.460877 5.954057 6.700000
12683 3 -7.668339 8.801796 6.700000
12684 3 -7.251624 8.095763 6.700000
12685 3 -6.459086 10.943502 6.700000
12686 3 -6.042371 10.237470 6.700000
12687 3 -5.249833 13.085209 6.700000
12688 3 -4.833117 12.379176 6.700000
12689 3 -4.040579 15.226915 6.700000
12690 3 -3.623864 14.520883 6.700000
12691 3 -2.831326 17.368622 6.700000
12692 3 -2.414611 16.662589 6.700000
12693 3 -1.622073 19.510328 6.700000
12694 3 -1.205358 18.804296 6.700000
12695 3 -0.412820 21.652035 6.700000
12696 3 0.003895 20.946002 6.700000
12697 3 0.796433 23.793741 6.700000
12698 3 1.213149 23.087709 6.700000
12699 3 2.005687 25.935448 6.700000
12700 3 2.422402 25.229415 6.700000
12701 3 3.214940 28.077154 6.700000
12702 3 3.631655 27.371122 6.700000
12703 3 4.424193 30.218861 6.700000
12704 3 4.840908 29.512828 6.700000
12705 3 5.633446 32.360567 6.700000
12706 3 6.050161 31.654535 6.700000
12707 3 6.842699 34.502274 6.700000
12708 3 7.259415 33.796241 6.700000
12709 3 8.051953 36.643980 6.700000
12710 3 8.468668 35.937948 6.700000
12711 3 9.261206 38.785687 6.700000
12712 3 9.677921 38.079654 6.700000
12713 3 10.470459 40.927393 6.700000
12714 3 10.887174 40.221361 6.700000
12715 3 11.679712 43.069100 6.700000
12716 3 12.096427 42.363067 6.700000
12717 3 12.888965 45.210806 6.700000
12718 3 13.305681 44.504774 6.700000
12719 3 14.098219 47.352513 6.700000
12720 3 14.514934 46.646480 6.700000
12721 3 15.307472 49.494219 6.700000
12722 3 15.724187 48.788187 6.700000
12723 3 16.516725 51.635926 6.700000
12724 3 16.933440 50.929893 6.700000
12725 3 17.725978 53.777632 6.700000
12726 3 18.142693 53.071600 6.700000
12727 3 18.935231 55.919339 6.700000
12728 3 19.351947 55.213306 6.700000
12729 3 20.144485 58.061045 6.700000
12730 3 20.561200 57.355013 6.700000
12731 3 -42.695789 -57.567496 6.700000
12732 3 -42.279074 -58.273529 6.700000
12733 3 -41.486536 -55.425790 6.700000
12734 3 -41.069821 -56.131822 6.700000
12735 3 -40.277283 -53.284083 6.700000
12736 3 -39.860568 -53.990116 6.700000
12737 3 -39.068030 -51.142377 6.700000
12738 3 -38.651314 -51.848409 6.700000
12739 3 -37.858776 -49.000670 6.700000
12740 3 -37.442061 -49.706703 6.700000
12741 3 -36.649523 -46.858964 6.700000
12742 3 -36.232808 -47.564996 6.700000
12743 3 -35.440270 -44.717257 6.700000
12744 3 -35.023555 -45.423290 6.700000
12745 3 -34.231017 -42.575551 6.700000
12746 3 -33.814302 -43.281583 6.700000
12747 3 -33.021764 -40.433844 6.700000
12748 3 -32.605048 -41.139877 6.700000
12749 3 -31.812510 -38.292138 6.700000
12750 3 -31.395795 -38.998170 6.700000
12751 3 -30.603257 -36.150431 6.700000
12752 3 -30.186542 -36.856464 6.700000
12753 3 -29.394004 -34.008725 6.700000
12754 3 -28.977289 -34.714757 6.700000
12755 3 -28.184751 -31.867018 6.700000
12756 3 -27.768036 -32.573051 6.700000
12757 3 -26.975498 -29.725312 6.700000
12758 3 -26.558782 -30.431344 6.700000
12759 3 -25.766244 -27.583605 6.700000
12760 3 -25.349529 -28.289638 6.700000
12761 3 -24.556991 -25.441899 6.700000
12762 3 -24.140276 -26.147931 6.700000
12763 3 -23.347738 -23.300192 6.700000
12764 3 -22.931023 -24.006225 6.700000
12765 3 -22.138485 -21.158486 6.700000
12766 3 -21.721770 -21.864518 6.700000
12767 3 -20.929232 -19.016779 6.700000
12768 3 -20.512516 -19.722812 6.700000
12769 3 -19.719978 -16.875073 6.700000
12770 3 -19.303263 -17.581105 6.700000
12771 3 -18.510725 -14.733366 6.700000
12772 3 -18.094010 -15.439399 6.700000
12773 3 -17.301472 -12.591660 6.700000
12774 3 -16.884757 -13.297692 6.700000
12775 3 -16.092219 -10.449953 6.700000
12776 3 -15.675504 -11.155986 6.700000
12777 3 -14.882966 -8.308247 6.700000
12778 3 -14.466250 -9.014279 6.700000
12779 3 -13.673713 -6.166540 6.700000
12780 3 -13.256997 -6.872573 6.700000
12781 3 -12.464459 -4.024834 6.700000
12782 3 -12.047744 -4.730866 6.700000
12783 3 -11.255206 -1.883127 6.700000
12784 3 -10.838491 -2.589160 6.700000
12785 3 -10.045953 0.258579 6.700000
12786 3 -9.629238 -0.447453 6.700000
12787 3 -8.836700 2.400286 6.700000
12788 3 -8.419985 1.694253 6.700000
12789 3 -7.627447 4.541992 6.700000
12790 3 -7.210731 3.835960 6.700000
12791 3 -6.418193 6.683699 6.700000
12792 3 -6.001478 5.977666 6.700000
12793 3 -5.208940 8.825405 6.700000
12794 3 -4.792225 8.119373 6.700000
12795 3 -3.999687 10.967112 6.700000
12796 3 -3.582972 10.261079 6.700000
12797 3 -2.790434 13.108818 6.700000
12798 3 -2.373719 12.402786 6.700000
12799 3 -1.581181 15.250525 6.700000
12800 3 -1.164465 14.544492 6.700000
12801 3 -0.371927 17.392231 6.700000
12802 3 0.044788 16.686199 6.700000
12803 3 0.837326 19.533938 6.700000
12804 3 1.254041 18.827905 6.700000
12805 3 2.046579 21.675644 6.700000
12806 3 2.463294 20.969612 6.700000
12807 3 3.255832 23.817351 6.700000
12808 3 3.672547 23.111318 6.700000
12809 3 4.465085 25.959057 6.700000
12810 3 4.881801 25.253025 6.700000
12811 3 5.674339 28.100764 6.700000
12812 3 6.091054 27.394731 6.700000
12813 3 6.883592 30.242470 6.700000
12814 3 7.300307 29.536438 6.700000
12815 3 8.092845 32.384177 6.700000
12816 3 8.509560 31.678144 6.700000
12817 3 9.302098 34.525883 6.700000
12818 3 9.718813 33.819851 6.700000
12819 3 10.511351 36.667590 6.700000
12820 3 10.928067 35.961557 6.700000
12821 3 11.720605 38.809296 6.700000
12822 3 12.137320 38.103264 6.700000
12823 3 12.929858 40.951003 6.700000
12824 3 13.346573 40.244970 6.700000
12825 3 14.139111 43.092709 6.700000
12826 3 14.555826 42.386677 6.700000
12827 3 15.348364 45.234416 6.700000
12828 3 15.765079 44.528383 6.700000
12829 3 16.557617 47.376122 6.700000
12830 3 16.974333 46.670090 6.700000
12831 3 17.766871 49.517829 6.700000
12832 3 18.183586 48.811796 6.700000
12833 3 18.976124 51.659535 6.700000
12834 3 19.392839 50.953503 6.700000
12835 3 20.185377 53.801242 6.700000
12836 3 20.602092 53.095209 6.700000
12837 3 21.394630 55.942948 6.700000
12838 3 21.811345 55.236916 6.700000
12839 3 22.603883 58.084655 6.700000
12840 3 23.020599 57.378622 6.700000
12841 3 -40.236390 -57.543887 6.700000
12842 3 -39.819675 -58.249919 6.700000
12843 3 -39.027137 -55.402180 6.700000
12844 3 -38.610422 -56.108213 6.700000
12845 3 -37.817884 -53.260474 6.700000
12846 3 -37.401169 -53.966506 6.700000
12847 3 -36.608631 -51.118767 6.700000
12848 3 -36.191916 -51.824800 6.700000
12849 3 -35.399378 -48.977061 6.700000
12850 3 -34.982662 -49.683093 6.700000
12851 3 -34.190124 -46.835354 6.700000
12852 3 -33.773409 -47.541387 6.700000
12853 3 -32.980871 -44.693648 6.700000
12854 3 -32.564156 -45.399680 6.700000
12855 3 -31.771618 -42.551941 6.700000
12856 3 -31.354903 -43.257974 6.700000
12857 3 -30.562365 -40.410235 6.700000
12858 3 -30.145650 -41.116267 6.700000
12859 3 -29.353112 -38.268528 6.700000
12860 3 -28.936396 -38.974561 6.700000
12861 3 -28.143858 -36.126822 6.700000
12862 3 -27.727143 -36.832854 6.700000
12863 3 -26.934605 -33.985115 6.700000
12864 3 -26.517890 -34.691148 6.700000
12865 3 -25.725352 -31.843409 6.700000
12866 3 -25.308637 -32.549441 6.700000
12867 3 -24.516099 -29.701702 6.700000
12868 3 -24.099384 -30.407735 6.700000
12869 3 -23.306846 -27.559996 6.700000
12870 3 -22.890130 -28.266028 6.700000
12871 3 -22.097592 -25.418289 6.700000
12872 3 -21.680877 -26.124322 6.700000
12873 3 -20.888339 -23.276583 6.700000
12874 3 -20.471624 -23.982615 6.700000
12875 3 -19.679086 -21.134877 6.700000
12876 3 -19.262371 -21.840909 6.700000
12877 3 -18.469833 -18.993170 6.700000
12878 3 -18.053118 -19.699202 6.700000
12879 3 -17.260580 -16.851464 6.700000
12880 3 -16.843864 -17.557496 6.700000
12881 3 -16.051326 -14.709757 6.700000
12882 3 -15.634611 -15.415789 6.700000
12883 3 -14.842073 -12.568051 6.700000
12884 3 -14.425358 -13.274083 6.700000
12885 3 -13.632820 -10.426344 6.700000
12886 3 -13.216105 -11.132376 6.700000
12887 3 -12.423567 -8.284638 6.700000
12888 3 -12.006852 -8.990670 6.700000
12889 3 -11.214314 -6.142931 6.700000
12890 3 -10.797598 -6.848963 6.700000
12891 3 -10.005060 -4.001225 6.700000
12892 3 -9.588345 -4.707257 6.700000
12893 3 -8.795807 -1.859518 6.700000
12894 3 -8.379092 -2.565550 6.700000
12895 3 -7.586554 0.282188 6.700000
12896 3 -7.169839 -0.423844 6.700000
12897 3 -6.377301 2.423895 6.700000
12898 3 -5.960586 1.717863 6.700000
12899 3 -5.168048 4.565601 6.700000
12900 3 -4.751332 3.859569 6.700000
12901 3 -3.958795 6.707308 6.700000
12902 3 -3.542079 6.001275 6.700000
12903 3 -2.749541 8.849014 6.700000
12904 3 -2.332826 8.142982 6.700000
12905 3 -1.540288 10.990721 6.700000
12906 3 -1.123573 10.284688 6.700000
12907 3 -0.331035 13.132427 6.700000
12908 3 0.085680 12.426395 6.700000
12909 3 0.878218 15.274134 6.700000
12910 3 1.294933 14.568101 6.700000
12911 3 2.087471 17.415840 6.700000
12912 3 2.504187 16.709808 6.700000
12913 3 3.296725 19.557547 6.700000
12914 3 3.713440 18.851514 6.700000
12915 3 4.505978 21.699253 6.700000
12916 3 4.922693 20.993221 6.700000
12917 3 5.715231 23.840960 6.700000
12918 3 6.131946 23.134927 6.700000
12919 3 6.924484 25.982666 6.700000
12920 3 7.341199 25.276634 6.700000
12921 3 8.133737 28.124373 6.700000
12922 3 8.550453 27.418340 6.700000
12923 3 9.342991 30.266079 6.700000
12924 3 9.759706 29.560047 6.700000
12925 3 10.552244 32.407786 6.700000
12926 3 10.968959 31.701753 6.700000
12927 3 11.761497 34.549492 6.700000
12928 3 12.178212 33.843460 6.700000
12929 3 12.970750 36.691199 6.700000
12930 3 13.387465 35.985166 6.700000
12931 3 14.180003 38.832905 6.700000
12932 3 14.596719 38.126873 6.700000
12933 3 15.389257 40.974612 6.700000
12934 3 15.805972 40.268579 6.700000
12935 3 16.598510 43.116318 6.700000
12936 3 17.015225 42.410286 6.700000
12937 3 17.807763 45.258025 6.700000
12938 3 18.224478 44.551992 6.700000
12939 3 19.017016 47.399731 6.700000
12940 3 19.433731 46.693699 6.700000
12941 3 20.226269 49.541438 6.700000
12942 3 20.642985 48.835405 6.700000
12943 3 21.435523 51.683144 6.700000
12944 3 21.852238 50.977112 6.700000
12945 3 22.644776 53.824851 6.700000
12946 3 23.061491 53.118818 6.700000
12947 3 23.854029 55.966557 6.700000
12948 3 24.270744 55.260525 6.700000
12949 3 25.063282 58.108264 6.700000
12950 3 25.479997 57.402231 6.700000
12951 3 -37.776992 -57.520278 6.700000
12952 3 -37.360276 -58.226310 6.700000
12953 3 -36.567738 -55.378571 6.700000
12954 3 -36.151023 -56.084604 6.700000
12955 3 -35.358485 -53.236865 6.700000
12956 3 -34.941770 -53.942897 6.700000
12957 3 -34.149232 -51.095158 6.700000
12958 3 -33.732517 -51.801191 6.700000
12959 3 -32.939979 -48.953452 6.700000
12960 3 -32.523264 -49.659484 6.700000
12961 3 -31.730726 -46.811745 6.700000
12962 3 -31.314010 -47.517778 6.700000
12963 3 -30.521472 -44.670039 6.700000
12964 3 -30.104757 -45.376071 6.700000
12965 3 -29.312219 -42.528332 6.700000
12966 3 -28.895504 -43.234365 6.700000
12967 3 -28.102966 -40.386626 6.700000
12968 3 -27.686251 -41.092658 6.700000
12969 3 -26.893713 -38.244919 6.700000
12970 3 -26.476998 -38.950952 6.700000
12971 3 -25.684460 -36.103213 6.700000
12972 3 -25.267744 -36.809245 6.700000
12973 3 -24.475206 -33.961506 6.700000
12974 3 -24.058491 -34.667539 6.700000
12975 3 -23.265953 -31.819800 6.700000
12976 3 -22.849238 -32.525832 6.700000
12977 3 -22.056700 -29.678093 6.700000
12978 3 -21.639985 -30.384126 6.700000
12979 3 -20.847447 -27.536387 6.700000
12980 3 -20.430732 -28.242419 6.700000
12981 3 -19.638194 -25.394680 6.700000
12982 3 -19.221478 -26.100713 6.700000
12983 3 -18.428940 -23.252974 6.700000
12984 3 -18.012225 -23.959006 6.700000
12985 3 -17.219687 -21.111267 6.700000
12986 3 -16.802972 -21.817300 6.700000
12987 3 -16.010434 -18.969561 6.700000
12988 3 -15.593719 -19.675593 6.700000
12989 3 -14.801181 -16.827854 6.700000
12990 3 -14.384466 -17.533887 6.700000
12991 3 -13.591928 -14.686148 6.700000
12992 3 -13.175212 -15.392180 6.700000
12993 3 -12.382674 -12.544441 6.700000
12994 3 -11.965959 -13.250474 6.700000
12995 3 -11.173421 -10.402735 6.700000
12996 3 -10.756706 -11.108767 6.700000
12997 3 -9.964168 -8.261028 6.700000
12998 3 -9.547453 -8.967061 6.700000
12999 3 -8.754915 -6.119322 6.700000
13000 3 -8.338200 -6.825354 6.700000
13001 3 -7.545662 -3.977615 6.700000
13002 3 -7.128946 -4.683648 6.700000
13003 3 -6.336408 -1.835909 6.700000
13004 3 -5.919693 -2.541941 6.700000
13005 3 -5.127155 0.305798 6.700000
13006 3 -4.710440 -0.400235 6.700000
13007 3 -3.917902 2.447504 6.700000
13008 3 -3.501187 1.741472 6.700000
13009 3 -2.708649 4.589211 6.700000
13010 3 -2.291934 3.883178 6.700000
13011 3 -1.499396 6.730917 6.700000
13012 3 -1.082680 6.024885 6.700000
13013 3 -0.290142 8.872624 6.700000
13014 3 0.126573 8.166591 6.700000
13015 3 0.919111 11.014330 6.700000
13016 3 1.335826 10.308298 6.700000
13017 3 2.128364 13.156037 6.700000
13018 3 2.545079 12.450004 6.700000
13019 3 3.337617 15.297743 6.700000
13020 3 3.754332 14.591711 6.700000
13021 3 4.546870 17.439450 6.700000
13022 3 4.963586 16.733417 6.700000
13023 3 5.756124 19.581156 6.700000
13024 3 6.172839 18.875124 6.700000
13025 3 6.965377 21.722863 6.700000
13026 3 7.382092 21.016830 6.700000
13027 3 8.174630 23.864569 6.700000
13028 3 8.591345 23.158537 6.700000
13029 3 9.383883 26.006276 6.700000
13030 3 9.800598 25.300243 6.700000
13031 3 10.593136 28.147982 6.700000
13032 3 11.009852 27.441950 6.700000
13033 3 11.802389 30.289689 6.700000
13034 3 12.219105 29.583656 6.700000
13035 3 13.011643 32.431395 6.700000
13036 3 13.428358 31.725363 6.700000
13037 3 14.220896 34.573102 6.700000
13038 3 14.637611 33.867069 6.700000
13039 3 15.430149 36.714808 6.700000
13040 3 15.846864 36.008776 6.700000
13041 3 16.639402 38.856515 6.700000
13042 3 17.056117 38.150482 6.700000
13043 3 17.848655 40.998221 6.700000
13044 3 18.265371 40.292189 6.700000
13045 3 19.057909 43.139928 6.700000
13046 3 19.474624 42.433895 6.700000
13047 3 20.267162 45.281634 6.700000
13048 3 20.683877 44.575602 6.700000
13049 3 21.476415 47.423341 6.700000
13050 3 21.893130 46.717308 6.700000
13051 3 22.685668 49.565047 6.700000
13052 3 23.102383 48.859015 6.700000
13053 3 23.894921 51.706754 6.700000
13054 3 24.311637 51.000721 6.700000
13055 3 25.104175 53.848460 6.700000
13056 3 25.520890 53.142428 6.700000
13057 3 26.313428 55.990167 6.700000
13058 3 26.730143 55.284134 6.700000
13059 3 27.522681 58.131873 6.700000
13060 3 27.939396 57.425841 6.700000
13061 3 -35.317593 -57.496668 6.700000
13062 3 -34.900878 -58.202701 6.700000
13063 3 -34.108340 -55.354962 6.700000
13064 3 -33.691624 -56.060994 6.700000
13065 3 -32.899086 -53.213255 6.700000
13066 3 -32.482371 -53.919288 6.700000
13067 3 -31.689833 -51.071549 6.700000
13068 3 -31.273118 -51.777581 6.700000
13069 3 -30.480580 -48.929842 6.700000
13070 3 -30.063865 -49.635875 6.700000
13071 3 -29.271327 -46.788136 6.700000
13072 3 -28.854612 -47.494168 6.700000
13073 3 -28.062074 -44.646429 6.700000
13074 3 -27.645358 -45.352462 6.700000
13075 3 -26.852820 -42.504723 6.700000
13076 3 -26.436105 -43.210755 6.700000
13077 3 -25.643567 -40.363016 6.700000
13078 3 -25.226852 -41.069049 6.700000
13079 3 -24.434314 -38.221310 6.700000
13080 3 -24.017599 -38.927342 6.700000
13081 3 -23.225061 -36.079603 6.700000
13082 3 -22.808346 -36.785636 6.700000
13083 3 -22.015808 -33.937897 6.700000
13084 3 -21.599092 -34.643929 6.700000
13085 3 -20.806554 -31.796190 6.700000
13086 3 -20.389839 -32.502223 6.700000
13087 3 -19.597301 -29.654484 6.700000
13088 3 -19.180586 -30.360516 6.700000
13089 3 -18.388048 -27.512777 6.700000
13090 3 -17.971333 -28.218810 6.700000
13091 3 -17.178795 -25.371071 6.700000
13092 3 -16.762080 -26.077103 6.700000
13093 3 -15.969542 -23.229364 6.700000
13094 3 -15.552826 -23.935397 6.700000
13095 3 -14.760288 -21.087658 6.700000
13096 3 -14.343573 -21.793690 6.700000
13097 3 -13.551035 -18.945951 6.700000
13098 3 -13.134320 -19.651984 6.700000
13099 3 -12.341782 -16.804245 6.700000
13100 3 -11.925067 -17.510277 6.700000
13101 3 -11.132529 -14.662539 6.700000
13102 3 -10.715814 -15.368571 6.700000
13103 3 -9.923276 -12.520832 6.700000
13104 3 -9.506560 -13.226864 6.700000
13105 3 -8.714022 -10.379126 6.700000
13106 3 -8.297307 -11.085158 6.700000
13107 3 -7.504769 -8.237419 6.700000
13108 3 -7.088054 -8.943451 6.700000
13109 3 -6.295516 -6.095713 6.700000
13110 3 -5.878801 -6.801745 6.700000
13111 3 -5.086263 -3.954006 6.700000
13112 3 -4.669548 -4.660038 6.700000
13113 3 -3.877010 -1.812300 6.700000
13114 3 -3.460294 -2.518332 6.700000
13115 3 -2.667756 0.329407 6.700000
13116 3 -2.251041 -0.376625 6.700000
13117 3 -1.458503 2.471113 6.700000
13118 3 -1.041788 1.765081 6.700000
13119 3 -0.249250 4.612820 6.700000
13120 3 0.167465 3.906788 6.700000
13121 3 0.960003 6.754526 6.700000
13122 3 1.376718 6.048494 6.700000
13123 3 2.169256 8.896233 6.700000
13124 3 2.585972 8.190201 6.700000
13125 3 3.378510 11.037939 6.700000
13126 3 3.795225 10.331907 6.700000
13127 3 4.587763 13.179646 6.700000
13128 3 5.004478 12.473613 6.700000
13129 3 5.797016 15.321352 6.700000
13130 3 6.213731 14.615320 6.700000
13131 3 7.006269 17.463059 6.700000
13132 3 7.422984 16.757026 6.700000
13133 3 8.215522 19.604765 6.700000
13134 3 8.632238 18.898733 6.700000
13135 3 9.424776 21.746472 6.700000
13136 3 9.841491 21.040439 6.700000
13137 3 10.634029 23.888178 6.700000
13138 3 11.050744 23.182146 6.700000
13139 3 11.843282 26.029885 6.700000
13140 3 12.259997 25.323852 6.700000
13141 3 13.052535 28.171591 6.700000
13142 3 13.469250 27.465559 6.700000
13143 3 14.261788 30.313298 6.700000
13144 3 14.678504 29.607265 6.700000
13145 3 15.471042 32.455004 6.700000
13146 3 15.887757 31.748972 6.700000
13147 3 16.680295 34.596711 6.700000
13148 3 17.097010 33.890678 6.700000
13149 3 17.889548 36.738417 6.700000
13150 3 18.306263 36.032385 6.700000
13151 3 19.098801 38.880124 6.700000
13152 3 19.515516 38.174091 6.700000
13153 3 20.308054 41.021830 6.700000
13154 3 20.724770 40.315798 6.700000
13155 3 21.517307 43.163537 6.700000
13156 3 21.934023 42.457504 6.700000
13157 3 22.726561 45.305243 6.700000
13158 3 23.143276 44.599211 6.700000
13159 3 23.935814 47.446950 6.700000
13160 3 24.352529 46.740917 6.700000
13161 3 25.145067 49.588656 6.700000
13162 3 25.561782 48.882624 6.700000
13163 3 26.354320 51.730363 6.700000
13164 3 26.771035 51.024330 6.700000
13165 3 27.563573 53.872069 6.700000
13166 3 27.980289 53.166037 6.700000
13167 3 28.772827 56.013776 6.700000
13168 3 29.189542 55.307743 6.700000
13169 3 29.982080 58.155482 6.700000
13170 3 30.398795 57.449450 6.700000
13171 3 -32.858194 -57.473059 6.700000
13172 3 -32.441479 -58.179092 6.700000
13173 3 -31.648941 -55.331353 6.700000
13174 3 -31.232226 -56.037385 6.700000
13175 3 -30.439688 -53.189646 6.700000
13176 3 -30.022972 -53.895679 6.700000
13177 3 -29.230434 -51.047940 6.700000
13178 3 -28.813719 -51.753972 6.700000
13179 3 -28.021181 -48.906233 6.700000
13180 3 -27.604466 -49.612266 6.700000
13181 3 -26.811928 -46.764527 6.700000
13182 3 -26.395213 -47.470559 6.700000
13183 3 -25.602675 -44.622820 6.700000
13184 3 -25.185960 -45.328853 6.700000
13185 3 -24.393422 -42.481114 6.700000
13186 3 -23.976706 -43.187146 6.700000
13187 3 -23.184168 -40.339407 6.700000
13188 3 -22.767453 -41.045440 6.700000
13189 3 -21.974915 -38.197701 6.700000
13190 3 -21.558200 -38.903733 6.700000
13191 3 -20.765662 -36.055994 6.700000
13192 3 -20.348947 -36.762027 6.700000
13193 3 -19.556409 -33.914288 6.700000
13194 3 -19.139694 -34.620320 6.700000
13195 3 -18.347156 -31.772581 6.700000
13196 3 -17.930440 -32.478614 6.700000
13197 3 -17.137902 -29.630875 6.700000
13198 3 -16.721187 -30.336907 6.700000
13199 3 -15.928649 -27.489168 6.700000
13200 3 -15.511934 -28.195201 6.700000
13201 3 -14.719396 -25.347462 6.700000
13202 3 -14.302681 -26.053494 6.700000
13203 3 -13.510143 -23.205755 6.700000
13204 3 -13.093428 -23.911788 6.700000
13205 3 -12.300890 -21.064049 6.700000
13206 3 -11.884174 -21.770081 6.700000
13207 3 -11.091636 -18.922342 6.700000
13208 3 -10.674921 -19.628375 6.700000
13209 3 -9.882383 -16.780636 6.700000
13210 3 -9.465668 -17.486668 6.700000
13211 3 -8.673130 -14.638929 6.700000
13212 3 -8.256415 -15.344962 6.700000
13213 3 -7.463877 -12.497223 6.700000
13214 3 -7.047162 -13.203255 6.700000
13215 3 -6.254624 -10.355516 6.700000
13216 3 -5.837908 -11.061549 6.700000
13217 3 -5.045370 -8.213810 6.700000
13218 3 -4.628655 -8.919842 6.700000
13219 3 -3.836117 -6.072103 6.700000
13220 3 -3.419402 -6.778136 6.700000
13221 3 -2.626864 -3.930397 6.700000
13222 3 -2.210149 -4.636429 6.700000
13223 3 -1.417611 -1.788690 6.700000
13224 3 -1.000896 -2.494723 6.700000
13225 3 -0.208358 0.353016 6.700000
13226 3 0.208358 -0.353016 6.700000
13227 3 1.000896 2.494723 6.700000
13228 3 1.417611 1.788690 6.700000
13229 3 2.210149 4.636429 6.700000
13230 3 2.626864 3.930397 6.700000
13231 3 3.419402 6.778136 6.700000
13232 3 3.836117 6.072103 6.700000
13233 3 4.628655 8.919842 6.700000
13234 3 5.045370 8.213810 6.700000
13235 3 5.837908 11.061549 6.700000
13236 3 6.254624 10.355516 6.700000
13237 3 7.047162 13.203255 6.700000
13238 3 7.463877 12.497223 6.700000
13239 3 8.256415 15.344962 6.700000
13240 3 8.673130 14.638929 6.700000
13241 3 9.465668 17.486668 6.700000
13242 3 9.882383 16.780636 6.700000
13243 3 10.674921 19.628375 6.700000
13244 3 11.091636 18.922342 6.700000
13245 3 11.884174 21.770081 6.700000
13246 3 12.300890 21.064049 6.700000
13247 3 13.093428 23.911788 6.700000
13248 3 13.510143 23.205755 6.700000
13249 3 14.302681 26.053494 6.700000
13250 3 14.719396 25.347462 6.700000
13251 3 15.511934 28.195201 6.700000
13252 3 15.928649 27.489168 6.700000
13253 3 16.721187 30.336907 6.700000
13254 3 17.137902 29.630875 6.700000
13255 3 17.930440 32.478614 6.700000
13256 3 18.347156 31.772581 6.700000
13257 3 19.139694 34.620320 6.700000
13258 3 19.556409 33.914288 6.700000
13259 3 20.348947 36.762027 6.700000
13260 3 20.765662 36.055994 6.700000
13261 3 21.558200 38.903733 6.700000
13262 3 21.974915 38.197701 6.700000
13263 3 22.767453 41.045440 6.700000
13264 3 23.184168 40.339407 6.700000
13265 3 23.976706 43.187146 6.700000
13266 3 24.393422 42.481114 6.700000
13267 3 25.185960 45.328853 6.700000
13268 3 25.602675 44.622820 6.700000
13269 3 26.395213 47.470559 6.700000
13270 3 26.811928 46.764527 6.700000
13271 3 27.604466 49.612266 6.700000
13272 3 28.021181 48.906233 6.700000
13273 3 28.813719 51.753972 6.700000
13274 3 29.230434 51.047940 6.700000
13275 3 30.022972 53.895679 6.700000
13276 3 30.439688 53.189646 6.700000
13277 3 31.232226 56.037385 6.700000
13278 3 31.648941 55.331353 6.700000
13279 3 32.441479 58.179092 6.700000
13280 3 32.858194 57.473059 6.700000
13281 3 -30.398795 -57.449450 6.700000
13282 3 -29.982080 -58.155482 6.700000
13283 3 -29.189542 -55.307743 6.700000
13284 3 -28.772827 -56.013776 6.700000
13285 3 -27.980289 -53.166037 6.700000
13286 3 -27.563573 -53.872069 6.700000
13287 3 -26.771035 -51.024330 6.700000
13288 3 -26.354320 -51.730363 6.700000
13289 3 -25.561782 -48.882624 6.700000
13290 3 -25.145067 -49.588656 6.700000
13291 3 -24.352529 -46.740917 6.700000
13292 3 -23.935814 -47.446950 6.700000
13293 3 -23.143276 -44.599211 6.700000
13294 3 -22.726561 -45.305243 6.700000
13295 3 -21.934023 -42.457504 6.700000
13296 3 -21.517307 -43.163537 6.700000
13297 3 -20.724770 -40.315798 6.700000
13298 3 -20.308054 -41.021830 6.700000
13299 3 -19.515516 -38.174091 6.700000
13300 3 -19.098801 -38.880124 6.700000
13301 3 -18.306263 -36.032385 6.700000
13302 3 -17.889548 -36.738417 6.700000
13303 3 -17.097010 -33.890678 6.700000
13304 3 -16.680295 -34.596711 6.700000
13305 3 -15.887757 -31.748972 6.700000
13306 3 -15.471042 -32.455004 6.700000
13307 3 -14.678504 -29.607265 6.700000
13308 3 -14.261788 -30.313298 6.700000
13309 3 -13.469250 -27.465559 6.700000
13310 3 -13.052535 -28.171591 6.700000
13311 3 -12.259997 -25.323852 6.700000
13312 3 -11.843282 -26.029885 6.700000
13313 3 -11.050744 -23.182146 6.700000
13314 3 -10.634029 -23.888178 6.700000
13315 3 -9.841491 -21.040439 6.700000
13316 3 -9.424776 -21.746472 6.700000
13317 3 -8.632238 -18.898733 6.700000
13318 3 -8.215522 -19.604765 6.700000
13319 3 -7.422984 -16.757026 6.700000
13320 3 -7.006269 -17.463059 6.700000
13321 3 -6.213731 -14.615320 6.700000
13322 3 -5.797016 -15.321352 6.700000
13323 3 -5.004478 -12.473613 6.700000
13324 3 -4.587763 -13.179646 6.700000
13325 3 -3.795225 -10.331907 6.700000
13326 3 -3.378510 -11.037939 6.700000
13327 3 -2.585972 -8.190201 6.700000
13328 3 -2.169256 -8.896233 6.700000
13329 3 -1.376718 -6.048494 6.700000
13330 3 -0.960003 -6.754526 6.700000
13331 3 -0.167465 -3.906788 6.700000
13332 3 0.249250 -4.612820 6.700000
13333 3 1.041788 -1.765081 6.700000
13334 3 1.458503 -2.471113 6.700000
13335 3 2.251041 0.376625 6.700000
13336 3 2.667756 -0.329407 6.700000
13337 3 3.460294 2.518332 6.700000
13338 3 3.877010 1.812300 6.700000
13339 3 4.669548 4.660038 6.700000
13340 3 5.086263 3.954006 6.700000
13341 3 5.878801 6.801745 6.700000
13342 3 6.295516 6.095713 6.700000
13343 3 7.088054 8.943451 6.700000
13344 3 7.504769 8.237419 6.700000
13345 3 8.297307 11.085158 6.700000
13346 3 8.714022 10.379126 6.700000
13347 3 9.506560 13.226864 6.700000
13348 3 9.923276 12.520832 6.700000
13349 3 10.715814 15.368571 6.700000
13350 3 11.132529 14.662539 6.700000
13351 3 11.925067 17.510277 6.700000
13352 3 12.341782 16.804245 6.700000
13353 3 13.134320 19.651984 6.700000
13354 3 13.551035 18.945951 6.700000
13355 3 14.343573 21.793690 6.700000
13356 3 14.760288 21.087658 6.700000
13357 3 15.552826 23.935397 6.700000
13358 3 15.969542 23.229364 6.700000
13359 3 16.762080 26.077103 6.700000
13360 3 17.178795 25.371071 6.700000
13361 3 17.971333 28.218810 6.700000
13362 3 18.388048 27.512777 6.700000
13363 3 19.180586 30.360516 6.700000
13364 3 19.597301 29.654484 6.700000
13365 3 20.389839 32.502223 6.700000
13366 3 20.806554 31.796190 6.700000
13367 3 21.599092 34.643929 6.700000
13368 3 22.015808 33.937897 6.700000
13369 3 22.808346 36.785636 6.700000
13370 3 23.225061 36.079603 6.700000
13371 3 24.017599 38.927342 6.700000
13372 3 24.434314 38.221310 6.700000
13373 3 25.226852 41.069049 6.700000
13374 3 25.643567 40.363016 6.700000
13375 3 26.436105 43.210755 6.700000
13376 3 26.852820 42.504723 6.700000
13377 3 27.645358 45.352462 6.700000
13378 3 28.062074 44.646429 6.700000
13379 3 28.854612 47.494168 6.700000
13380 3 29.271327 46.788136 6.700000
13381 3 30.063865 49.635875 6.700000
13382 3 30.480580 48.929842 6.700000
13383 3 31.273118 51.777581 6.700000
13384 3 31.689833 51.071549 6.700000
13385 3 32.482371 53.919288 6.700000
13386 3 32.899086 53.213255 6.700000
13387 3 33.691624 56.060994 6.700000
13388 3 34.108340 55.354962 6.700000
13389 3 34.900878 58.202701 6.700000
13390 3 35.317593 57.496668 6.700000
13391 3 -27.939396 -57.425841 6.700000
13392 3 -27.522681 -58.131873 6.700000
13393 3 -26.730143 -55.284134 6.700000
13394 3 -26.313428 -55.990167 6.700000
13395 3 -25.520890 -53.142428 6.700000
13396 3 -25.104175 -53.848460 6.700000
13397 3 -24.311637 -51.000721 6.700000
13398 3 -23.894921 -51.706754 6.700000
13399 3 -23.102383 -48.859015 6.700000
13400 3 -22.685668 -49.565047 6.700000
13401 3 -21.893130 -46.717308 6.700000
13402 3 -21.476415 -47.423341 6.700000
13403 3 -20.683877 -44.575602 6.700000
13404 3 -20.267162 -45.281634 6.700000
13405 3 -19.474624 -42.433895 6.700000
13406 3 -19.057909 -43.139928 6.700000
13407 3 -18.265371 -40.292189 6.700000
13408 3 -17.848655 -40.998221 6.700000
13409 3 -17.056117 -38.150482 6.700000
13410 3 -16.639402 -38.856515 6.700000
13411 3 -15.846864 -36.008776 6.700000
13412 3 -15.430149 -36.714808 6.700000
13413 3 -14.637611 -33.867069 6.700000
13414 3 -14.220896 -34.573102 6.700000
13415 3 -13.428358 -31.725363 6.700000
13416 3 -13.011643 -32.431395 6.700000
13417 3 -12.219105 -29.583656 6.700000
13418 3 -11.802389 -30.289689 6.700000
13419 3 -11.009852 -27.441950 6.700000
13420 3 -10.593136 -28.147982 6.700000
13421 3 -9.800598 -25.300243 6.700000
13422 3 -9.383883 -26.006276 6.700000
13423 3 -8.591345 -23.158537 6.700000
13424 3 -8.174630 -23.864569 6.700000
13425 3 -7.382092 -21.016830 6.700000
13426 3 -6.965377 -21.722863 6.700000
13427 3 -6.172839 -18.875124 6.700000
13428 3 -5.756124 -19.581156 6.700000
13429 3 -4.963586 -16.733417 6.700000
13430 3 -4.546870 -17.439450 6.700000
13431 3 -3.754332 -14.591711 6.700000
13432 3 -3.337617 -15.297743 6.700000
13433 3 -2.545079 -12.450004 6.700000
13434 3 -2.128364 -13.156037 6.700000
13435 3 -1.335826 -10.308298 6.700000
13436 3 -0.919111 -11.014330 6.700000
13437 3 -0.126573 -8.166591 6.700000
13438 3 0.290142 -8.872624 6.700000
13439 3 1.082680 -6.024885 6.700000
13440 3 1.499396 -6.730917 6.700000
13441 3 2.291934 -3.883178 6.700000
13442 3 2.708649 -4.589211 6.700000
13443 3 3.501187 -1.741472 6.700000
13444 3 3.917902 -2.447504 6.700000
13445 3 4.710440 0.400235 6.700000
13446 3 5.127155 -0.305798 6.700000
13447 3 5.919693 2.541941 6.700000
13448 3 6.336408 1.835909 6.700000
13449 3 7.128946 4.683648 6.700000
13450 3 7.545662 3.977615 6.700000
13451 3 8.338200 6.825354 6.700000
13452 3 8.754915 6.119322 6.700000
13453 3 9.547453 8.967061 6.700000
13454 3 9.964168 8.261028 6.700000
13455 3 10.756706 11.108767 6.700000
13456 3 11.173421 10.402735 6.700000
13457 3 11.965959 13.250474 6.700000
13458 3 12.382674 12.544441 6.700000
13459 3 13.175212 15.392180 6.700000
13460 3 13.591928 14.686148 6.700000
13461 3 14.384466 17.533887 6.700000
13462 3 14.801181 16.827854 6.700000
13463 3 15.593719 19.675593 6.700000
13464 3 16.010434 18.969561 6.700000
13465 3 16.802972 21.817300 6.700000
13466 3 17.219687 21.111267 6.700000
13467 3 18.012225 23.959006 6.700000
13468 3 18.428940 23.252974 6.700000
13469 3 19.221478 26.100713 6.700000
13470 3 19.638194 25.394680 6.700000
13471 3 20.430732 28.242419 6.700000
13472 3 20.847447 27.536387 6.700000
13473 3 21.639985 30.384126 6.700000
13474 3 22.056700 29.678093 6.700000
13475 3 22.849238 32.525832 6.700000
13476 3 23.265953 31.819800 6.700000
13477 3 24.058491 34.667539 6.700000
13478 3 24.475206 33.961506 6.700000
13479 3 25.267744 36.809245 6.700000
13480 3 25.684460 36.103213 6.700000
13481 3 26.476998 38.950952 6.700000
13482 3 26.893713 38.244919 6.700000
13483 3 27.686251 41.092658 6.700000
13484 3 28.102966 40.386626 6.700000
13485 3 28.895504 43.234365 6.700000
13486 3 29.312219 42.528332 6.700000
13487 3 30.104757 45.376071 6.700000
13488 3 30.521472 44.670039 6.700000
13489 3 31.314010 47.517778 6.700000
13490 3 31.730726 46.811745 6.700000
13491 3 32.523264 49.659484 6.700000
13492 3 32.939979 48.953452 6.700000
13493 3 33.732517 51.801191 6.700000
13494 3 34.149232 51.095158 6.700000
13495 3 34.941770 53.942897 6.700000
13496 3 35.358485 53.236865 6.700000
13497 3 36.151023 56.084604 6.700000
13498 3 36.567738 55.378571 6.700000
13499 3 37.360276 58.226310 6.700000
13500 3 37.776992 57.520278 6.700000
13501 3 -25.479997 -57.402231 6.700000
13502 3 -25.063282 -58.108264 6.700000
13503 3 -24.270744 -55.260525 6.700000
13504 3 -23.854029 -55.966557 6.700000
13505 3 -23.061491 -53.118818 6.700000
13506 3 -22.644776 -53.824851 6.700000
13507 3 -21.852238 -50.977112 6.700000
13508 3 -21.435523 -51.683144 6.700000
13509 3 -20.642985 -48.835405 6.700000
13510 3 -20.226269 -49.541438 6.700000
13511 3 -19.433731 -46.693699 6.700000
13512 3 -19.017016 -47.399731 6.700000
13513 3 -18.224478 -44.551992 6.700000
13514 3 -17.807763 -45.258025 6.700000
13515 3 -17.015225 -42.410286 6.700000
13516 3 -16.598510 -43.116318 6.700000
13517 3 -15.805972 -40.268579 6.700000
13518 3 -15.389257 -40.974612 6.700000
13519 3 -14.596719 -38.126873 6.700000
13520 3 -14.180003 -38.832905 6.700000
13521 3 -13.387465 -35.985166 6.700000
13522 3 -12.970750 -36.691199 6.700000
13523 3 -12.178212 -33.843460 6.700000
13524 3 -11.761497 -34.549492 6.700000
13525 3 -10.968959 -31.701753 6.700000
13526 3 -10.552244 -32.407786 6.700000
13527 3 -9.759706 -29.560047 6.700000
13528 3 -9.342991 -30.266079 6.700000
13529 3 -8.550453 -27.418340 6.700000
13530 3 -8.133737 -28.124373 6.700000
13531 3 -7.341199 -25.276634 6.700000
13532 3 -6.924484 -25.982666 6.700000
13533 3 -6.131946 -23.134927 6.700000
13534 3 -5.715231 -23.840960 6.700000
13535 3 -4.922693 -20.993221 6.700000
13536 3 -4.505978 -21.699253 6.700000
13537 3 -3.713440 -18.851514 6.700000
13538 3 -3.296725 -19.557547 6.700000
13539 3 -2.504187 -16.709808 6.700000
13540 3 -2.087471 -17.415840 6.700000
13541 3 -1.294933 -14.568101 6.700000
13542 3 -0.878218 -15.274134 6.700000
13543 3 -0.085680 -12.426395 6.700000
13544 3 0.331035 -13.132427 6.700000
13545 3 1.123573 -10.284688 6.700000
13546 3 1.540288 -10.990721 6.700000
13547 3 2.332826 -8.142982 6.700000
13548 3 2.749541 -8.849014 6.700000
13549 3 3.542079 -6.001275 6.700000
13550 3 3.958795 -6.707308 6.700000
13551 3 4.751332 -3.859569 6.700000
13552 3 5.168048 -4.565601 6.700000
13553 3 5.960586 -1.717863 6.700000
13554 3 6.377301 -2.423895 6.700000
13555 3 7.169839 0.423844 6.700000
13556 3 7.586554 -0.282188 6.700000
13557 3 8.379092 2.565550 6.700000
13558 3 8.795807 1.859518 6.700000
13559 3 9.588345 4.707257 6.700000
13560 3 10.005060 4.001225 6.700000
13561 3 10.797598 6.848963 6.700000
13562 3 11.214314 6.142931 6.700000
13563 3 12.006852 8.990670 6.700000
13564 3 12.423567 8.284638 6.700000
13565 3 13.216105 11.132376 6.700000
13566 3 13.632820 10.426344 6.700000
13567 3 14.425358 13.274083 6.700000
13568 3 14.842073 12.568051 6.700000
13569 3 15.634611 15.415789 6.700000
13570 3 16.051326 14.709757 6.700000
13571 3 16.843864 17.557496 6.700000
13572 3 17.260580 16.851464 6.700000
13573 3 18.053118 19.699202 6.700000
13574 3 18.469833 18.993170 6.700000
13575 3 19.262371 21.840909 6.700000
13576 3 19.679086 21.134877 6.700000
13577 3 20.471624 23.982615 6.700000
13578 3 20.888339 23.276583 6.700000
13579 3 21.680877 26.124322 6.700000
13580 3 22.097592 25.418289 6.700000
13581 3 22.890130 28.266028 6.700000
13582 3 23.306846 27.559996 6.700000
13583 3 24.099384 30.407735 6.700000
13584 3 24.516099 29.701702 6.700000
13585 3 25.308637 32.549441 6.700000
13586 3 25.725352 31.843409 6.700000
13587 3 26.517890 34.691148 6.700000
13588 3 26.934605 33.985115 6.700000
13589 3 27.727143 36.832854 6.700000
13590 3 28.143858 36.126822 6.700000
13591 3 28.936396 38.974561 6.700000
13592 3 29.353112 38.268528 6.700000
13593 3 30.145650 41.116267 6.700000
13594 3 30.562365 40.410235 6.700000
13595 3 31.354903 43.257974 6.700000
13596 3 31.771618 42.551941 6.700000
13597 3 32.564156 45.399680 6.700000
13598 3 32.980871 44.693648 6.700000
13599 3 33.773409 47.541387 6.700000
13600 3 34.190124 46.835354 6.700000
13601 3 34.982662 49.683093 6.700000
13602 3 35.399378 48.977061 6.700000
13603 3 36.191916 51.824800 6.700000
13604 3 36.608631 51.118767 6.700000
13605 3 37.401169 53.966506 6.700000
13606 3 37.817884 53.260474 6.700000
13607 3 38.610422 56.108213 6.700000
13608 3 39.027137 55.402180 6.700000
13609 3 39.819675 58.249919 6.700000
13610 3 40.236390 57.543887 6.700000
13611 3 -23.020599 -57.378622 6.700000
13612 3 -22.603883 -58.084655 6.700000
13613 3 -21.811345 -55.236916 6.700000
13614 3 -21.394630 -55.942948 6.700000
13615 3 -20.602092 -53.095209 6.700000
13616 3 -20.185377 -53.801242 6.700000
13617 3 -19.392839 -50.953503 6.700000
13618 3 -18.976124 -51.659535 6.700000
13619 3 -18.183586 -48.811796 6.700000
13620 3 -17.766871 -49.517829 6.700000
13621 3 -16.974333 -46.670090 6.700000
13622 3 -16.557617 -47.376122 6.700000
13623 3 -15.765079 -44.528383 6.700000
13624 3 -15.348364 -45.234416 6.700000
13625 3 -14.555826 -42.386677 6.700000
13626 3 -14.139111 -43.092709 6.700000
13627 3 -13.346573 -40.244970 6.700000
13628 3 -12.929858 -40.951003 6.700000
13629 3 -12.137320 -38.103264 6.700000
13630 3 -11.720605 -38.809296 6.700000
13631 3 -10.928067 -35.961557 6.700000
13632 3 -10.511351 -36.667590 6.700000
13633 3 -9.718813 -33.819851 6.700000
13634 3 -9.302098 -34.525883 6.700000
13635 3 -8.509560 -31.678144 6.700000
13636 3 -8.092845 -32.384177 6.700000
13637 3 -7.300307 -29.536438 6.700000
13638 3 -6.883592 -30.242470 6.700000
13639 3 -6.091054 -27.394731 6.700000
13640 3 -5.674339 -28.100764 6.700000
13641 3 -4.881801 -25.253025 6.700000
13642 3 -4.465085 -25.959057 6.700000
13643 3 -3.672547 -23.111318 6.700000
13644 3 -3.255832 -23.817351 6.700000
13645 3 -2.463294 -20.969612 6.700000
13646 3 -2.046579 -21.675644 6.700000
13647 3 -1.254041 -18.827905 6.700000
13648 3 -0.837326 -19.533938 6.700000
13649 3 -0.044788 -16.686199 6.700000
13650 3 0.371927 -17.392231 6.700000
13651 3 1.164465 -14.544492 6.700000
13652 3 1.581181 -15.250525 6.700000
13653 3 2.373719 -12.402786 6.700000
13654 3 2.790434 -13.108818 6.700000
13655 3 3.582972 -10.261079 6.700000
13656 3 3.999687 -10.967112 6.700000
13657 3 4.792225 -8.119373 6.700000
13658 3 5.208940 -8.825405 6.700000
13659 3 6.001478 -5.977666 6.700000
13660 3 6.418193 -6.683699 6.700000
13661 3 7.210731 -3.835960 6.700000
13662 3 7.627447 -4.541992 6.700000
13663 3 8.419985 -1.694253 6.700000
13664 3 8.836700 -2.400286 6.700000
13665 3 9.629238 0.447453 6.700000
13666 3 10.045953 -0.258579 6.700000
13667 3 10.838491 2.589160 6.700000
13668 3 11.255206 1.883127 6.700000
13669 3 12.047744 4.730866 6.700000
13670 3 12.464459 4.024834 6.700000
13671 3 13.256997 6.872573 6.700000
13672 3 13.673713 6.166540 6.700000
13673 3 14.466250 9.014279 6.700000
13674 3 14.882966 8.308247 6.700000
13675 3 15.675504 11.155986 6.700000
13676 3 16.092219 10.449953 6.700000
13677 3 16.884757 13.297692 6.700000
13678 3 17.301472 12.591660 6.700000
13679 3 18.094010 15.439399 6.700000
13680 3 18.510725 14.733366 6.700000
13681 3 19.303263 17.581105 6.700000
13682 3 19.719978 16.875073 6.700000
13683 3 20.512516 19.722812 6.700000
13684 3 20.929232 19.016779 6.700000
13685 3 21.721770 21.864518 6.700000
13686 3 22.138485 21.158486 6.700000
13687 3 22.931023 24.006225 6.700000
13688 3 23.347738 23.300192 6.700000
13689 3 24.140276 26.147931 6.700000
13690 3 24.556991 25.441899 6.700000
13691 3 25.349529 28.289638 6.700000
13692 3 25.766244 27.583605 6.700000
13693 3 26.558782 30.431344 6.700000
13694 3 26.975498 29.725312 6.700000
13695 3 27.768036 32.573051 6.700000
13696 3 28.184751 31.867018 6.700000
13697 3 28.977289 34.714757 6.700000
13698 3 29.394004 34.008725 6.700000
13699 3 30.186542 36.856464 6.700000
13700 3 30.603257 36.150431 6.700000
13701 3 31.395795 38.998170 6.700000
13702 3 31.812510 38.292138 6.700000
13703 3 32.605048 41.139877 6.700000
13704 3 33.021764 40.433844 6.700000
13705 3 33.814302 43.281583 6.700000
13706 3 34.231017 42.575551 6.700000
13707 3 35.023555 45.423290 6.700000
13708 3 35.440270 44.717257 6.700000
13709 3 36.232808 47.564996 6.700000
13710 3 36.649523 46.858964 6.700000
13711 3 37.442061 49.706703 6.700000
13712 3 37.858776 49.000670 6.700000
13713 3 38.651314 51.848409 6.700000
13714 3 39.068030 51.142377 6.700000
13715 3 39.860568 53.990116 6.700000
13716 3 40.277283 53.284083 6.700000
13717 3 41.069821 56.131822 6.700000
13718 3 41.486536 55.425790 6.700000
13719 3 42.279074 58.273529 6.700000
13720 3 42.695789 57.567496 6.700000
13721 3 -20.561200 -57.355013 6.700000
13722 3 -20.144485 -58.061045 6.700000
13723 3 -19.351947 -55.213306 6.700000
13724 3 -18.935231 -55.919339 6.700000
13725 3 -18.142693 -53.071600 6.700000
13726 3 -17.725978 -53.777632 6.700000
13727 3 -16.933440 -50.929893 6.700000
13728 3 -16.516725 -51.635926 6.700000
13729 3 -15.724187 -48.788187 6.700000
13730 3 -15.307472 -49.494219 6.700000
13731 3 -14.514934 -46.646480 6.700000
13732 3 -14.098219 -47.352513 6.700000
13733 3 -13.305681 -44.504774 6.700000
13734 3 -12.888965 -45.210806 6.700000
13735 3 -12.096427 -42.363067 6.700000
13736 3 -11.679712 -43.069100 6.700000
13737 3 -10.887174 -40.221361 6.700000
13738 3 -10.470459 -40.927393 6.700000
13739 3 -9.677921 -38.079654 6.700000
13740 3 -9.261206 -38.785687 6.700000
13741 3 -8.468668 -35.937948 6.700000
13742 3 -8.051953 -36.643980 6.700000
13743 3 -7.259415 -33.796241 6.700000
13744 3 -6.842699 -34.502274 6.700000
13745 3 -6.050161 -31.654535 6.700000
13746 3 -5.633446 -32.360567 6.700000
13747 3 -4.840908 -29.512828 6.700000
13748 3 -4.424193 -30.218861 6.700000
13749 3 -3.631655 -27.371122 6.700000
13750 3 -3.214940 -28.077154 6.700000
13751 3 -2.422402 -25.229415 6.700000
13752 3 -2.005687 -25.935448 6.700000
13753 3 -1.213149 -23.087709 6.700000
13754 3 -0.796433 -23.793741 6.700000
13755 3 -0.003895 -20.946002 6.700000
13756 3 0.412820 -21.652035 6.700000
13757 3 1.205358 -18.804296 6.700000
13758 3 1.622073 -19.510328 6.700000
13759 3 2.414611 -16.662589 6.700000
13760 3 2.831326 -17.368622 6.700000
13761 3 3.623864 -14.520883 6.700000
13762 3 4.040579 -15.226915 6.700000
13763 3 4.833117 -12.379176 6.700000
13764 3 5.249833 -13.085209 6.700000
13765 3 6.042371 -10.237470 6.700000
13766 3 6.459086 -10.943502 6.700000
13767 3 7.251624 -8.095763 6.700000
13768 3 7.668339 -8.801796 6.700000
13769 3 8.460877 -5.954057 6.700000
13770 3 8.877592 -6.660089 6.700000
13771 3 9.670130 -3.812350 6.700000
13772 3 10.086845 -4.518383 6.700000
13773 3 10.879383 -1.670644 6.700000
13774 3 11.296099 -2.376676 6.700000
13775 3 12.088637 0.471063 6.700000
13776 3 12.505352 -0.234970 6.700000
13777 3 13.297890 2.612769 6.700000
13778 3 13.714605 1.906737 6.700000
13779 3 14.507143 4.754475 6.700000
13780 3 14.923858 4.048443 6.700000
13781 3 15.716396 6.896182 6.700000
13782 3 16.133111 6.190150 6.700000
13783 3 16.925649 9.037888 6.700000
13784 3 17.342365 8.331856 6.700000
13785 3 18.134903 11.179595 6.700000
13786 3 18.551618 10.473563 6.700000
13787 3 19.344156 13.321301 6.700000
13788 3 19.760871 12.615269 6.700000
13789 3 20.553409 15.463008 6.700000
13790 3 20.970124 14.756976 6.700000
13791 3 21.762662 17.604714 6.700000
13792 3 22.179377 16.898682 6.700000
13793 3 22.971915 19.746421 6.700000
13794 3 23.388631 19.040389 6.700000
13795 3 24.181169 21.888127 6.700000
13796 3 24.597884 21.182095 6.700000
13797 3 25.390422 24.029834 6.700000
13798 3 25.807137 23.323802 6.700000
13799 3 26.599675 26.171540 6.700000
13800 3 27.016390 25.465508 6.700000
13801 3 27.808928 28.313247 6.700000
13802 3 28.225643 27.607215 6.700000
13803 3 29.018181 30.454953 6.700000
13804 3 29.434897 29.748921 6.700000
13805 3 30.227434 32.596660 6.700000
13806 3 30.644150 31.890628 6.700000
13807 3 31.436688 34.738366 6.700000
13808 3 31.853403 34.032334 6.700000
13809 3 32.645941 36.880073 6.700000
13810 3 33.062656 36.174040 6.700000
13811 3 33.855194 39.021779 6.700000
13812 3 34.271909 38.315747 6.700000
13813 3 35.064447 41.163486 6.700000
13814 3 35.481162 40.457453 6.700000
13815 3 36.273700 43.305192 6.700000
13816 3 36.690416 42.599160 6.700000
13817 3 37.482954 45.446899 6.700000
13818 3 37.899669 44.740866 6.700000
13819 3 38.692207 47.588605 6.700000
13820 3 39.108922 46.882573 6.700000
13821 3 39.901460 49.730312 6.700000
13822 3 40.318175 49.024279 6.700000
13823 3 41.110713 51.872018 6.700000
13824 3 41.527428 51.165986 6.700000
13825 3 42.319966 54.013725 6.700000
13826 3 42.736682 53.307692 6.700000
13827 3 43.529220 56.155431 6.700000
13828 3 43.945935 55.449399 6.700000
13829 3 44.738473 58.297138 6.700000
13830 3 45.155188 57.591105 6.700000
13831 3 -18.101801 -57.331404 6.700000
13832 3 -17.685086 -58.037436 6.700000
13833 3 -16.892548 -55.189697 6.700000
13834 3 -16.475833 -55.895729 6.700000
13835 3 -15.683295 -53.047991 6.700000
13836 3 -15.266579 -53.754023 6.700000
13837 3 -14.474041 -50.906284 6.700000
13838 3 -14.057326 -51.612317 6.700000
13839 3 -13.264788 -48.764578 6.700000
13840 3 -12.848073 -49.470610 6.700000
13841 3 -12.055535 -46.622871 6.700000
13842 3 -11.638820 -47.328904 6.700000
13843 3 -10.846282 -44.481165 6.700000
13844 3 -10.429567 -45.187197 6.700000
13845 3 -9.637029 -42.339458 6.700000
13846 3 -9.220313 -43.045491 6.700000
13847 3 -8.427775 -40.197752 6.700000
13848 3 -8.011060 -40.903784 6.700000
13849 3 -7.218522 -38.056045 6.700000
13850 3 -6.801807 -38.762078 6.700000
13851 3 -6.009269 -35.914339 6.700000
13852 3 -5.592554 -36.620371 6.700000
13853 3 -4.800016 -33.772632 6.700000
13854 3 -4.383301 -34.478665 6.700000
13855 3 -3.590763 -31.630926 6.700000
13856 3 -3.174047 -32.336958 6.700000
13857 3 -2.381509 -29.489219 6.700000
13858 3 -1.964794 -30.195252 6.700000
13859 3 -1.172256 -27.347513 6.700000
13860 3 -0.755541 -28.053545 6.700000
13861 3 0.036997 -25.205806 6.700000
13862 3 0.453712 -25.911839 6.700000
13863 3 1.246250 -23.064100 6.700000
13864 3 1.662965 -23.770132 6.700000
13865 3 2.455503 -20.922393 6.700000
13866 3 2.872219 -21.628426 6.700000
13867 3 3.664757 -18.780687 6.700000
13868 3 4.081472 -19.486719 6.700000
13869 3 4.874010 -16.638980 6.700000
13870 3 5.290725 -17.345013 6.700000
13871 3 6.083263 -14.497274 6.700000
13872 3 6.499978 -15.203306 6.700000
13873 3 7.292516 -12.355567 6.700000
13874 3 7.709231 -13.061600 6.700000
13875 3 8.501769 -10.213861 6.700000
13876 3 8.918485 -10.919893 6.700000
13877 3 9.711023 -8.072154 6.700000
13878 3 10.127738 -8.778187 6.700000
13879 3 10.920276 -5.930448 6.700000
13880 3 11.336991 -6.636480 6.700000
13881 3 12.129529 -3.788741 6.700000
13882 3 12.546244 -4.494774 6.700000
13883 3 13.338782 -1.647035 6.700000
13884 3 13.755497 -2.353067 6.700000
13885 3 14.548035 0.494672 6.700000
13886 3 14.964751 -0.211361 6.700000
13887 3 15.757289 2.636378 6.700000
13888 3 16.174004 1.930346 6.700000
13889 3 16.966542 4.778085 6.700000
13890 3 17.383257 4.072052 6.700000
13891 3 18.175795 6.919791 6.700000
13892 3 18.592510 6.213759 6.700000
13893 3 19.385048 9.061498 6.700000
13894 3 19.801763 8.355465 6.700000
13895 3 20.594301 11.203204 6.700000
13896 3 21.011017 10.497172 6.700000
13897 3 21.803555 13.344911 6.700000
13898 3 22.220270 12.638878 6.700000
13899 3 23.012808 15.486617 6.700000
13900 3 23.429523 14.780585 6.700000
13901 3 24.222061 17.628324 6.700000
13902 3 24.638776 16.922291 6.700000
13903 3 25.431314 19.770030 6.700000
13904 3 25.848029 19.063998 6.700000
13905 3 26.640567 21.911737 6.700000
13906 3 27.057283 21.205704 6.700000
13907 3 27.849821 24.053443 6.700000
13908 3 28.266536 23.347411 6.700000
13909 3 29.059074 26.195150 6.700000
13910 3 29.475789 25.489117 6.700000
13911 3 30.268327 28.336856 6.700000
13912 3 30.685042 27.630824 6.700000
13913 3 31.477580 30.478563 6.700000
13914 3 31.894295 29.772530 6.700000
13915 3 32.686833 32.620269 6.700000
13916 3 33.103549 31.914237 6.700000
13917 3 33.896087 34.761976 6.700000
13918 3 34.312802 34.055943 6.700000
13919 3 35.105340 36.903682 6.700000
13920 3 35.522055 36.197650 6.700000
13921 3 36.314593 39.045389 6.700000
13922 3 36.731308 38.339356 6.700000
13923 3 37.523846 41.187095 6.700000
13924 3 37.940561 40.481063 6.700000
13925 3 38.733099 43.328802 6.700000
13926 3 39.149815 42.622769 6.700000
13927 3 39.942353 45.470508 6.700000
13928 3 40.359068 44.764476 6.700000
13929 3 41.151606 47.612215 6.700000
13930 3 41.568321 46.906182 6.700000
13931 3 42.360859 49.753921 6.700000
13932 3 42.777574 49.047889 6.700000
13933 3 43.570112 51.895628 6.700000
13934 3 43.986827 51.189595 6.700000
13935 3 44.779365 54.037334 6.700000
13936 3 45.196080 53.331302 6.700000
13937 3 45.988618 56.179041 6.700000
13938 3 46.405334 55.473008 6.700000
13939 3 47.197872 58.320747 6.700000
13940 3 47.614587 57.614715 6.700000
13941 3 -15.642402 -57.307794 6.700000
13942 3 -15.225687 -58.013827 6.700000
13943 3 -14.433149 -55.166088 6.700000
13944 3 -14.016434 -55.872120 6.700000
13945 3 -13.223896 -53.024381 6.700000
13946 3 -12.807181 -53.730414 6.700000
13947 3 -12.014643 -50.882675 6.700000
13948 3 -11.597927 -51.588707 6.700000
13949 3 -10.805389 -48.740968 6.700000
13950 3 -10.388674 -49.447001 6.700000
13951 3 -9.596136 -46.599262 6.700000
13952 3 -9.179421 -47.305294 6.700000
13953 3 -8.386883 -44.457555 6.700000
13954 3 -7.970168 -45.163588 6.700000
13955 3 -7.177630 -42.315849 6.700000
13956 3 -6.760915 -43.021881 6.700000
13957 3 -5.968377 -40.174142 6.700000
13958 3 -5.551661 -40.880175 6.700000
13959 3 -4.759123 -38.032436 6.700000
13960 3 -4.342408 -38.738468 6.700000
13961 3 -3.549870 -35.890729 6.700000
13962 3 -3.133155 -36.596762 6.700000
13963 3 -2.340617 -33.749023 6.700000
13964 3 -1.923902 -34.455055 6.700000
13965 3 -1.131364 -31.607316 6.700000
13966 3 -0.714649 -32.313349 6.700000
13967 3 0.077889 -29.465610 6.700000
13968 3 0.494605 -30.171642 6.700000
13969 3 1.287143 -27.323903 6.700000
13970 3 1.703858 -28.029936 6.700000
13971 3 2.496396 -25.182197 6.700000
13972 3 2.913111 -25.888229 6.700000
13973 3 3.705649 -23.040490 6.700000
13974 3 4.122364 -23.746523 6.700000
13975 3 4.914902 -20.898784 6.700000
13976 3 5.331617 -21.604816 6.700000
13977 3 6.124155 -18.757077 6.700000
13978 3 6.540871 -19.463110 6.700000
13979 3 7.333409 -16.615371 6.700000
13980 3 7.750124 -17.321403 6.700000
13981 3 8.542662 -14.473664 6.700000
13982 3 8.959377 -15.179697 6.700000
13983 3 9.751915 -12.331958 6.700000
13984 3 10.168630 -13.037990 6.700000
13985 3 10.961168 -10.190251 6.700000
13986 3 11.377883 -10.896284 6.700000
13987 3 12.170421 -8.048545 6.700000
13988 3 12.587137 -8.754577 6.700000
13989 3 13.379675 -5.906838 6.700000
13990 3 13.796390 -6.612871 6.700000
13991 3 14.588928 -3.765132 6.700000
13992 3 15.005643 -4.471164 6.700000
13993 3 15.798181 -1.623425 6.700000
13994 3 16.214896 -2.329458 6.700000
13995 3 17.007434 0.518281 6.700000
13996 3 17.424149 -0.187751 6.700000
13997 3 18.216687 2.659988 6.700000
13998 3 18.633403 1.953955 6.700000
13999 3 19.425941 4.801694 6.700000
14000 3 19.842656 4.095662 6.700000
14001 3 20.635194 6.943401 6.700000
14002 3 21.051909 6.237368 6.700000
14003 3 21.844447 9.085107 6.700000
14004 3 22.261162 8.379075 6.700000
14005 3 23.053700 11.226813 6.700000
14006 3 23.470415 10.520781 6.700000
14007 3 24.262953 13.368520 6.700000
14008 3 24.679669 12.662488 6.700000
14009 3 25.472207 15.510226 6.700000
14010 3 25.888922 14.804194 6.700000
14011 3 26.681460 17.651933 6.700000
14012 3 27.098175 16.945901 6.700000
14013 3 27.890713 19.793639 6.700000
14014 3 28.307428 19.087607 6.700000
14015 3 29.099966 21.935346 6.700000
14016 3 29.516681 21.229314 6.700000
14017 3 30.309219 24.077052 6.700000
14018 3 30.725935 23.371020 6.700000
14019 3 31.518473 26.218759 6.700000
14020 3 31.935188 25.512727 6.700000
14021 3 32.727726 28.360465 6.700000
14022 3 33.144441 27.654433 6.700000
14023 3 33.936979 30.502172 6.700000
14024 3 34.353694 29.796140 6.700000
14025 3 35.146232 32.643878 6.700000
14026 3 35.562947 31.937846 6.700000
14027 3 36.355485 34.785585 6.700000
14028 3 36.772201 34.079553 6.700000
14029 3 37.564739 36.927291 6.700000
14030 3 37.981454 36.221259 6.700000
14031 3 38.773992 39.068998 6.700000
14032 3 39.190707 38.362966 6.700000
14033 3 39.983245 41.210704 6.700000
14034 3 40.399960 40.504672 6.700000
14035 3 41.192498 43.352411 6.700000
14036 3 41.609213 42.646378 6.700000
14037 3 42.401751 45.494117 6.700000
14038 3 42.818467 44.788085 6.700000
14039 3 43.611005 47.635824 6.700000
14040 3 44.027720 46.929791 6.700000
14041 3 44.820258 49.777530 6.700000
14042 3 45.236973 49.071498 6.700000
14043 3 46.029511 51.919237 6.700000
14044 3 46.446226 51.213204 6.700000
14045 3 47.238764 54.060943 6.700000
14046 3 47.655479 53.354911 6.700000
14047 3 48.448017 56.202650 6.700000
14048 3 48.864733 55.496617 6.700000
14049 3 49.657271 58.344356 6.700000
14050 3 50.073986 57.638324 6.700000
14051 3 -13.183003 -57.284185 6.700000
14052 3 -12.766288 -57.990217 6.700000
14053 3 -11.973750 -55.142479 6.700000
14054 3 -11.557035 -55.848511 6.700000
14055 3 -10.764497 -53.000772 6.700000
14056 3 -10.347782 -53.706804 6.700000
14057 3 -9.555244 -50.859066 6.700000
14058 3 -9.138528 -51.565098 6.700000
14059 3 -8.345990 -48.717359 6.700000
14060 3 -7.929275 -49.423391 6.700000
14061 3 -7.136737 -46.575653 6.700000
14062 3 -6.720022 -47.281685 6.700000
14063 3 -5.927484 -44.433946 6.700000
14064 3 -5.510769 -45.139979 6.700000
14065 3 -4.718231 -42.292240 6.700000
14066 3 -4.301516 -42.998272 6.700000
14067 3 -3.508978 -40.150533 6.700000
14068 3 -3.092262 -40.856566 6.700000
14069 3 -2.299725 -38.008827 6.700000
14070 3 -1.883009 -38.714859 6.700000
14071 3 -1.090471 -35.867120 6.700000
14072 3 -0.673756 -36.573153 6.700000
14073 3 0.118782 -33.725414 6.700000
14074 3 0.535497 -34.431446 6.700000
14075 3 1.328035 -31.583707 6.700000
14076 3 1.744750 -32.289740 6.700000
14077 3 2.537288 -29.442001 6.700000
14078 3 2.954003 -30.148033 6.700000
14079 3 3.746541 -27.300294 6.700000
14080 3 4.163257 -28.006327 6.700000
14081 3 4.955795 -25.158588 6.700000
14082 3 5.372510 -25.864620 6.700000
14083 3 6.165048 -23.016881 6.700000
14084 3 6.581763 -23.722914 6.700000
14085 3 7.374301 -20.875175 6.700000
14086 3 7.791016 -21.581207 6.700000
14087 3 8.583554 -18.733468 6.700000
14088 3 9.000269 -19.439501 6.700000
14089 3 9.792807 -16.591762 6.700000
14090 3 10.209523 -17.297794 6.700000
14091 3 11.002061 -14.450055 6.700000
14092 3 11.418776 -15.156088 6.700000
14093 3 12.211314 -12.308349 6.700000
14094 3 12.628029 -13.014381 6.700000
14095 3 13.420567 -10.166642 6.700000
14096 3 13.837282 -10.872675 6.700000
14097 3 14.629820 -8.024936 6.700000
14098 3 15.046535 -8.730968 6.700000
14099 3 15.839073 -5.883229 6.700000
14100 3 16.255789 -6.589262 6.700000
14101 3 17.048327 -3.741523 6.700000
14102 3 17.465042 -4.447555 6.700000
14103 3 18.257580 -1.599816 6.700000
14104 3 18.674295 -2.305849 6.700000
14105 3 19.466833 0.541890 6.700000
14106 3 19.883548 -0.164142 6.700000
14107 3 20.676086 2.683597 6.700000
14108 3 21.092801 1.977564 6.700000
14109 3 21.885339 4.825303 6.700000
14110 3 22.302055 4.119271 6.700000
14111 3 23.094593 6.967010 6.700000
14112 3 23.511308 6.260977 6.700000
14113 3 24.303846 9.108716 6.700000
14114 3 24.720561 8.402684 6.700000
14115 3 25.513099 11.250423 6.700000
14116 3 25.929814 10.544390 6.700000
14117 3 26.722352 13.392129 6.700000
14118 3 27.139067 12.686097 6.700000
14119 3 27.931605 15.533836 6.700000
14120 3 28.348321 14.827803 6.700000
14121 3 29.140859 17.675542 6.700000
14122 3 29.557574 16.969510 6.700000
14123 3 30.350112 19.817249 6.700000
14124 3 30.766827 19.111216 6.700000
14125 3 31.559365 21.958955 6.700000
14126 3 31.976080 21.252923 6.700000
14127 3 32.768618 24.100662 6.700000
14128 3 33.185333 23.394629 6.700000
14129 3 33.977871 26.242368 6.700000
14130 3 34.394587 25.536336 6.700000
14131 3 35.187125 28.384075 6.700000
14132 3 35.603840 27.678042 6.700000
14133 3 36.396378 30.525781 6.700000
14134 3 36.813093 29.819749 6.700000
14135 3 37.605631 32.667488 6.700000
14136 3 38.022346 31.961455 6.700000
14137 3 38.814884 34.809194 6.700000
14138 3 39.231599 34.103162 6.700000
14139 3 40.024137 36.950901 6.700000
14140 3 40.440853 36.244868 6.700000
14141 3 41.233391 39.092607 6.700000
14142 3 41.650106 38.386575 6.700000
14143 3 42.442644 41.234314 6.700000
14144 3 42.859359 40.528281 6.700000
14145 3 43.651897 43.376020 6.700000
14146 3 44.068612 42.669988 6.700000
14147 3 44.861150 45.517727 6.700000
14148 3 45.277865 44.811694 6.700000
14149 3 46.070403 47.659433 6.700000
14150 3 46.487119 46.953401 6.700000
14151 3 47.279657 49.801140 6.700000
14152 3 47.696372 49.095107 6.700000
14153 3 48.488910 51.942846 6.700000
14154 3 48.905625 51.236814 6.700000
14155 3 49.698163 54.084553 6.700000
14156 3 50.114878 53.378520 6.700000
14157 3 50.907416 56.226259 6.700000
14158 3 51.324131 55.520227 6.700000
14159 3 -10.723604 -57.260576 6.700000
14160 3 -10.306889 -57.966608 6.700000
14161 3 -9.514351 -55.118869 6.700000
14162 3 -9.097636 -55.824902 6.700000
14163 3 -8.305098 -52.977163 6.700000
14164 3 -7.888383 -53.683195 6.700000
14165 3 -7.095845 -50.835456 6.700000
14166 3 -6.679130 -51.541489 6.700000
14167 3 -5.886592 -48.693750 6.700000
14168 3 -5.469876 -49.399782 6.700000
14169 3 -4.677338 -46.552043 6.700000
14170 3 -4.260623 -47.258076 6.700000
14171 3 -3.468085 -44.410337 6.700000
14172 3 -3.051370 -45.116369 6.700000
14173 3 -2.258832 -42.268630 6.700000
14174 3 -1.842117 -42.974663 6.700000
14175 3 -1.049579 -40.126924 6.700000
14176 3 -0.632864 -40.832956 6.700000
14177 3 0.159674 -37.985217 6.700000
14178 3 0.576390 -38.691250 6.700000
14179 3 1.368928 -35.843511 6.700000
14180 3 1.785643 -36.549543 6.700000
14181 3 2.578181 -33.701804 6.700000
14182 3 2.994896 -34.407837 6.700000
14183 3 3.787434 -31.560098 6.700000
14184 3 4.204149 -32.266130 6.700000
14185 3 4.996687 -29.418391 6.700000
14186 3 5.413402 -30.124424 6.700000
14187 3 6.205940 -27.276685 6.700000
14188 3 6.622656 -27.982717 6.700000
14189 3 7.415194 -25.134978 6.700000
14190 3 7.831909 -25.841011 6.700000
14191 3 8.624447 -22.993272 6.700000
14192 3 9.041162 -23.699304 6.700000
14193 3 9.833700 -20.851565 6.700000
14194 3 10.250415 -21.557598 6.700000
14195 3 11.042953 -18.709859 6.700000
14196 3 11.459668 -19.415891 6.700000
14197 3 12.252206 -16.568152 6.700000
14198 3 12.668921 -17.274185 6.700000
14199 3 13.461459 -14.426446 6.700000
14200 3 13.878175 -15.132478 6.700000
14201 3 14.670713 -12.284739 6.700000
14202 3 15.087428 -12.990772 6.700000
14203 3 15.879966 -10.143033 6.700000
14204 3 16.296681 -10.849065 6.700000
14205 3 17.089219 -8.001326 6.700000
14206 3 17.505934 -8.707359 6.700000
14207 3 18.298472 -5.859620 6.700000
14208 3 18.715187 -6.565652 6.700000
14209 3 19.507725 -3.717913 6.700000
14210 3 19.924441 -4.423946 6.700000
14211 3 20.716979 -1.576207 6.700000
14212 3 21.133694 -2.282239 6.700000
14213 3 21.926232 0.565500 6.700000
14214 3 22.342947 -0.140533 6.700000
14215 3 23.135485 2.707206 6.700000
14216 3 23.552200 2.001174 6.700000
14217 3 24.344738 4.848913 6.700000
14218 3 24.761453 4.142880 6.700000
14219 3 25.553991 6.990619 6.700000
14220 3 25.970707 6.284587 6.700000
14221 3 26.763245 9.132326 6.700000
14222 3 27.179960 8.426293 6.700000
14223 3 27.972498 11.274032 6.700000
14224 3 28.389213 10.568000 6.700000
14225 3 29.181751 13.415739 6.700000
14226 3 29.598466 12.709706 6.700000
14227 3 30.391004 15.557445 6.700000
14228 3 30.807719 14.851413 6.700000
14229 3 31.600257 17.699151 6.700000
14230 3 32.016973 16.993119 6.700000
14231 3 32.809511 19.840858 6.700000
14232 3 33.226226 19.134826 6.700000
14233 3 34.018764 21.982564 6.700000
14234 3 34.435479 21.276532 6.700000
14235 3 35.228017 24.124271 6.700000
14236 3 35.644732 23.418239 6.700000
14237 3 36.437270 26.265977 6.700000
14238 3 36.853985 25.559945 6.700000
14239 3 37.646523 28.407684 6.700000
14240 3 38.063239 27.701652 6.700000
14241 3 38.855777 30.549390 6.700000
14242 3 39.272492 29.843358 6.700000
14243 3 40.065030 32.691097 6.700000
14244 3 40.481745 31.985065 6.700000
14245 3 41.274283 34.832803 6.700000
14246 3 41.690998 34.126771 6.700000
14247 3 42.483536 36.974510 6.700000
14248 3 42.900251 36.268478 6.700000
14249 3 43.692789 39.116216 6.700000
14250 3 44.109505 38.410184 6.700000
14251 3 44.902043 41.257923 6.700000
14252 3 45.318758 40.551891 6.700000
14253 3 46.111296 43.399629 6.700000
14254 3 46.528011 42.693597 6.700000
14255 3 47.320549 45.541336 6.700000
14256 3 47.737264 44.835304 6.700000
14257 3 48.529802 47.683042 6.700000
14258 3 48.946517 46.977010 6.700000
14259 3 49.739055 49.824749 6.700000
14260 3 50.155771 49.118716 6.700000
14261 3 50.948309 51.966455 6.700000
14262 3 51.365024 51.260423 6.700000
14263 3 52.157562 54.108162 6.700000
14264 3 52.574277 53.402129 6.700000
14265 3 -8.264206 -57.236967 6.700000
14266 3 -7.847490 -57.942999 6.700000
14267 3 -7.054952 -55.095260 6.700000
14268 3 -6.638237 -55.801292 6.700000
14269 3 -5.845699 -52.953554 6.700000
14270 3 -5.428984 -53.659586 6.700000
14271 3 -4.636446 -50.811847 6.700000
14272 3 -4.219731 -51.517879 6.700000
14273 3 -3.427193 -48.670141 6.700000
14274 3 -3.010478 -49.376173 6.700000
14275 3 -2.217940 -46.528434 6.700000
14276 3 -1.801224 -47.234466 6.700000
14277 3 -1.008686 -44.386728 6.700000
14278 3 -0.591971 -45.092760 6.700000
14279 3 0.200567 -42.245021 6.700000
14280 3 0.617282 -42.951053 6.700000
14281 3 1.409820 -40.103315 6.700000
14282 3 1.826535 -40.809347 6.700000
14283 3 2.619073 -37.961608 6.700000
14284 3 3.035788 -38.667641 6.700000
14285 3 3.828326 -35.819902 6.700000
14286 3 4.245042 -36.525934 6.700000
14287 3 5.037580 -33.678195 6.700000
14288 3 5.454295 -34.384228 6.700000
14289 3 6.246833 -31.536489 6.700000
14290 3 6.663548 -32.242521 6.700000
14291 3 7.456086 -29.394782 6.700000
14292 3 7.872801 -30.100815 6.700000
14293 3 8.665339 -27.253076 6.700000
14294 3 9.082054 -27.959108 6.700000
14295 3 9.874592 -25.111369 6.700000
14296 3 10.291308 -25.817402 6.700000
14297 3 11.083846 -22.969663 6.700000
14298 3 11.500561 -23.675695 6.700000
14299 3 12.293099 -20.827956 6.700000
14300 3 12.709814 -21.533989 6.700000
14301 3 13.502352 -18.686250 6.700000
14302 3 13.919067 -19.392282 6.700000
14303 3 14.711605 -16.544543 6.700000
14304 3 15.128320 -17.250576 6.700000
14305 3 15.920858 -14.402837 6.700000
14306 3 16.337574 -15.108869 6.700000
14307 3 17.130112 -12.261130 6.700000
14308 3 17.546827 -12.967163 6.700000
14309 3 18.339365 -10.119424 6.700000
14310 3 18.756080 -10.825456 6.700000
14311 3 19.548618 -7.977717 6.700000
14312 3 19.965333 -8.683750 6.700000
14313 3 20.757871 -5.836011 6.700000
14314 3 21.174586 -6.542043 6.700000
14315 3 21.967124 -3.694304 6.700000
14316 3 22.383840 -4.400337 6.700000
14317 3 23.176377 -1.552598 6.700000
14318 3 23.593093 -2.258630 6.700000
14319 3 24.385631 0.589109 6.700000
14320 3 24.802346 -0.116924 6.700000
14321 3 25.594884 2.730815 6.700000
14322 3 26.011599 2.024783 6.700000
14323 3 26.804137 4.872522 6.700000
14324 3 27.220852 4.166489 6.700000
14325 3 28.013390 7.014228 6.700000
14326 3 28.430105 6.308196 6.700000
14327 3 29.222643 9.155935 6.700000
14328 3 29.639359 8.449902 6.700000
14329 3 30.431897 11.297641 6.700000
14330 3 30.848612 10.591609 6.700000
14331 3 31.641150 13.439348 6.700000
14332 3 32.057865 12.733315 6.700000
14333 3 32.850403 15.581054 6.700000
14334 3 33.267118 14.875022 6.700000
14335 3 34.059656 17.722761 6.700000
14336 3 34.476371 17.016728 6.700000
14337 3 35.268909 19.864467 6.700000
14338 3 35.685625 19.158435 6.700000
14339 3 36.478163 22.006174 6.700000
14340 3 36.894878 21.300141 6.700000
14341 3 37.687416 24.147880 6.700000
14342 3 38.104131 23.441848 6.700000
14343 3 38.896669 26.289587 6.700000
14344 3 39.313384 25.583554 6.700000
14345 3 40.105922 28.431293 6.700000
14346 3 40.522637 27.725261 6.700000
14347 3 41.315175 30.573000 6.700000
14348 3 41.731891 29.866967 6.700000
14349 3 42.524429 32.714706 6.700000
14350 3 42.941144 32.008674 6.700000
14351 3 43.733682 34.856413 6.700000
14352 3 44.150397 34.150380 6.700000
14353 3 44.942935 36.998119 6.700000
14354 3 45.359650 36.292087 6.700000
14355 3 46.152188 39.139826 6.700000
14356 3 46.568903 38.433793 6.700000
14357 3 47.361441 41.281532 6.700000
14358 3 47.778157 40.575500 6.700000
14359 3 48.570695 43.423239 6.700000
14360 3 48.987410 42.717206 6.700000
14361 3 49.779948 45.564945 6.700000
14362 3 50.196663 44.858913 6.700000
14363 3 50.989201 47.706652 6.700000
14364 3 51.405916 47.000619 6.700000
14365 3 52.198454 49.848358 6.700000
14366 3 52.615169 49.142326 6.700000
14367 3 53.407707 51.990065 6.700000
14368 3 53.824423 51.284032 6.700000
14369 3 55.033676 53.425739 6.700000
14370 3 -5.804807 -57.213357 6.700000
14371 3 -5.388092 -57.919390 6.700000
14372 3 -4.595554 -55.071651 6.700000
14373 3 -4.178838 -55.777683 6.700000
14374 3 -3.386300 -52.929944 6.700000
14375 3 -2.969585 -53.635977 6.700000
14376 3 -2.177047 -50.788238 6.700000
14377 3 -1.760332 -51.494270 6.700000
14378 3 -0.967794 -48.646531 6.700000
14379 3 -0.551079 -49.352564 6.700000
14380 3 0.241459 -46.504825 6.700000
14381 3 0.658174 -47.210857 6.700000
14382 3 1.450712 -44.363118 6.700000
14383 3 1.867428 -45.069151 6.700000
14384 3 2.659966 -42.221412 6.700000
14385 3 3.076681 -42.927444 6.700000
14386 3 3.869219 -40.079705 6.700000
14387 3 4.285934 -40.785738 6.700000
14388 3 5.078472 -37.937999 6.700000
14389 3 5.495187 -38.644031 6.700000
14390 3 6.287725 -35.796292 6.700000
14391 3 6.704440 -36.502325 6.700000
14392 3 7.496978 -33.654586 6.700000
14393 3 7.913694 -34.360618 6.700000
14394 3 8.706232 -31.512879 6.700000
14395 3 9.122947 -32.218912 6.700000
14396 3 9.915485 -29.371173 6.700000
14397 3 10.332200 -30.077205 6.700000
14398 3 11.124738 -27.229466 6.700000
14399 3 11.541453 -27.935499 6.700000
14400 3 12.333991 -25.087760 6.700000
14401 3 12.750706 -25.793792 6.700000
14402 3 13.543244 -22.946053 6.700000
14403 3 13.959960 -23.652086 6.700000
14404 3 14.752498 -20.804347 6.700000
14405 3 15.169213 -21.510379 6.700000
14406 3 15.961751 -18.662640 6.700000
14407 3 16.378466 -19.368673 6.700000
14408 3 17.171004 -16.520934 6.700000
14409 3 17.587719 -17.226966 6.700000
14410 3 18.380257 -14.379227 6.700000
14411 3 18.796972 -15.085260 6.700000
14412 3 19.589510 -12.237521 6.700000
14413 3 20.006226 -12.943553 6.700000
14414 3 20.798764 -10.095814 6.700000
14415 3 21.215479 -10.801847 6.700000
14416 3 22.008017 -7.954108 6.700000
14417 3 22.424732 -8.660140 6.700000
14418 3 23.217270 -5.812401 6.700000
14419 3 23.633985 -6.518434 6.700000
14420 3 24.426523 -3.670695 6.700000
14421 3 24.843238 -4.376727 6.700000
14422 3 25.635776 -1.528988 6.700000
14423 3 26.052492 -2.235021 6.700000
14424 3 26.845030 0.612718 6.700000
14425 3 27.261745 -0.093314 6.700000
14426 3 28.054283 2.754425 6.700000
14427 3 28.470998 2.048392 6.700000
14428 3 29.263536 4.896131 6.700000
14429 3 29.680251 4.190099 6.700000
14430 3 30.472789 7.037838 6.700000
14431 3 30.889504 6.331805 6.700000
14432 3 31.682042 9.179544 6.700000
14433 3 32.098758 8.473512 6.700000
14434 3 32.891296 11.321251 6.700000
14435 3 33.308011 10.615218 6.700000
14436 3 34.100549 13.462957 6.700000
14437 3 34.517264 12.756925 6.700000
14438 3 35.309802 15.604664 6.700000
14439 3 35.726517 14.898631 6.700000
14440 3 36.519055 17.746370 6.700000
14441 3 36.935770 17.040338 6.700000
14442 3 37.728308 19.888077 6.700000
14443 3 38.145024 19.182044 6.700000
14444 3 38.937561 22.029783 6.700000
14445 3 39.354277 21.323751 6.700000
14446 3 40.146815 24.171489 6.700000
14447 3 40.563530 23.465457 6.700000
14448 3 41.356068 26.313196 6.700000
14449 3 41.772783 25.607164 6.700000
14450 3 42.565321 28.454902 6.700000
14451 3 42.982036 27.748870 6.700000
14452 3 43.774574 30.596609 6.700000
14453 3 44.191289 29.890577 6.700000
14454 3 44.983827 32.738315 6.700000
14455 3 45.400543 32.032283 6.700000
14456 3 46.193081 34.880022 6.700000
14457 3 46.609796 34.173990 6.700000
14458 3 47.402334 37.021728 6.700000
14459 3 47.819049 36.315696 6.700000
14460 3 48.611587 39.163435 6.700000
14461 3 49.028302 38.457403 6.700000
14462 3 49.820840 41.305141 6.700000
14463 3 50.237555 40.599109 6.700000
14464 3 51.030093 43.446848 6.700000
14465 3 51.446809 42.740816 6.700000
14466 3 52.239347 45.588554 6.700000
14467 3 52.656062 44.882522 6.700000
14468 3 53.448600 47.730261 6.700000
14469 3 53.865315 47.024229 6.700000
14470 3 54.657853 49.871967 6.700000
14471 3 55.074568 49.165935 6.700000
14472 3 55.867106 52.013674 6.700000
14473 3 56.283821 51.307642 6.700000
14474 3 -3.345408 -57.189748 6.700000
14475 3 -2.928693 -57.895780 6.700000
14476 3 -2.136155 -55.048042 6.700000
14477 3 -1.719440 -55.754074 6.700000
14478 3 -0.926902 -52.906335 6.700000
14479 3 -0.510186 -53.612367 6.700000
14480 3 0.282352 -50.764629 6.700000
14481 3 0.699067 -51.470661 6.700000
14482 3 1.491605 -48.622922 6.700000
14483 3 1.908320 -49.328954 6.700000
14484 3 2.700858 -46.481216 6.700000
14485 3 3.117573 -47.187248 6.700000
14486 3 3.910111 -44.339509 6.700000
14487 3 4.326826 -45.045541 6.700000
14488 3 5.119364 -42.197803 6.700000
14489 3 5.536080 -42.903835 6.700000
14490 3 6.328618 -40.056096 6.700000
14491 3 6.745333 -40.762128 6.700000
14492 3 7.537871 -37.914390 6.700000
14493 3 7.954586 -38.620422 6.700000
14494 3 8.747124 -35.772683 6.700000
14495 3 9.163839 -36.478715 6.700000
14496 3 9.956377 -33.630977 6.700000
14497 3 10.373092 -34.337009 6.700000
14498 3 11.165630 -31.489270 6.700000
14499 3 11.582346 -32.195303 6.700000
14500 3 12.374884 -29.347564 6.700000
14501 3 12.791599 -30.053596 6.700000
14502 3 13.584137 -27.205857 6.700000
14503 3 14.000852 -27.911890 6.700000
14504 3 14.793390 -25.064151 6.700000
14505 3 15.210105 -25.770183 6.700000
14506 3 16.002643 -22.922444 6.700000
14507 3 16.419358 -23.628477 6.700000
14508 3 17.211896 -20.780738 6.700000
14509 3 17.628612 -21.486770 6.700000
14510 3 18.421150 -18.639031 6.700000
14511 3 18.837865 -19.345064 6.700000
14512 3 19.630403 -16.497325 6.700000
14513 3 20.047118 -17.203357 6.700000
14514 3 20.839656 -14.355618 6.700000
14515 3 21.256371 -15.061651 6.700000
14516 3 22.048909 -12.213912 6.700000
14517 3 22.465624 -12.919944 6.700000
14518 3 23.258162 -10.072205 6.700000
14519 3 23.674878 -10.778238 6.700000
14520 3 24.467416 -7.930499 6.700000
14521 3 24.884131 -8.636531 6.700000
14522 3 25.676669 -5.788792 6.700000
14523 3 26.093384 -6.494825 6.700000
14524 3 26.885922 -3.647086 6.700000
14525 3 27.302637 -4.353118 6.700000
14526 3 28.095175 -1.505379 6.700000
14527 3 28.511890 -2.211412 6.700000
14528 3 29.304428 0.636327 6.700000
14529 3 29.721144 -0.069705 6.700000
14530 3 30.513682 2.778034 6.700000
14531 3 30.930397 2.072001 6.700000
14532 3 31.722935 4.919740 6.700000
14533 3 32.139650 4.213708 6.700000
14534 3 32.932188 7.061447 6.700000
14535 3 33.348903 6.355414 6.700000
14536 3 34.141441 9.203153 6.700000
14537 3 34.558156 8.497121 6.700000
14538 3 35.350694 11.344860 6.700000
14539 3 35.767410 10.638827 6.700000
14540 3 36.559948 13.486566 6.700000
14541 3 36.976663 12.780534 6.700000
14542 3 37.769201 15.628273 6.700000
14543 3 38.185916 14.922240 6.700000
14544 3 38.978454 17.769979 6.700000
14545 3 39.395169 17.063947 6.700000
14546 3 40.187707 19.911686 6.700000
14547 3 40.604422 19.205653 6.700000
14548 3 41.396960 22.053392 6.700000
14549 3 41.813676 21.347360 6.700000
14550 3 42.606214 24.195099 6.700000
14551 3 43.022929 23.489066 6.700000
14552 3 43.815467 26.336805 6.700000
14553 3 44.232182 25.630773 6.700000
14554 3 45.024720 28.478512 6.700000
14555 3 45.441435 27.772479 6.700000
14556 3 46.233973 30.620218 6.700000
14557 3 46.650688 29.914186 6.700000
14558 3 47.443226 32.761925 6.700000
14559 3 47.859942 32.055892 6.700000
14560 3 48.652479 34.903631 6.700000
14561 3 49.069195 34.197599 6.700000
14562 3 49.861733 37.045338 6.700000
14563 3 50.278448 36.339305 6.700000
14564 3 51.070986 39.187044 6.700000
14565 3 51.487701 38.481012 6.700000
14566 3 52.280239 41.328751 6.700000
14567 3 52.696954 40.622718 6.700000
14568 3 53.489492 43.470457 6.700000
14569 3 53.906207 42.764425 6.700000
14570 3 54.698745 45.612164 6.700000
14571 3 55.115461 44.906131 6.700000
14572 3 55.907999 47.753870 6.700000
14573 3 56.324714 47.047838 6.700000
14574 3 57.117252 49.895577 6.700000
14575 3 57.533967 49.189544 6.700000
14576 3 -0.886009 -57.166139 6.700000
14577 3 -0.469294 -57.872171 6.700000
14578 3 0.323244 -55.024432 6.700000
14579 3 0.739959 -55.730465 6.700000
14580 3 1.532497 -52.882726 6.700000
14581 3 1.949212 -53.588758 6.700000
14582 3 2.741750 -50.741019 6.700000
14583 3 3.158466 -51.447052 6.700000
14584 3 3.951004 -48.599313 6.700000
14585 3 4.367719 -49.305345 6.700000
14586 3 5.160257 -46.457606 6.700000
14587 3 5.576972 -47.163639 6.700000
14588 3 6.369510 -44.315900 6.700000
14589 3 6.786225 -45.021932 6.700000
14590 3 7.578763 -42.174193 6.700000
14591 3 7.995478 -42.880226 6.700000
14592 3 8.788016 -40.032487 6.700000
14593 3 9.204732 -40.738519 6.700000
14594 3 9.997270 -37.890780 6.700000
14595 3 10.413985 -38.596813 6.700000
14596 3 11.206523 -35.749074 6.700000
14597 3 11.623238 -36.455106 6.700000
14598 3 12.415776 -33.607367 6.700000
14599 3 12.832491 -34.313400 6.700000
14600 3 13.625029 -31.465661 6.700000
14601 3 14.041744 -32.171693 6.700000
14602 3 14.834282 -29.323954 6.700000
14603 3 15.250998 -30.029987 6.700000
14604 3 16.043536 -27.182248 6.700000
14605 3 16.460251 -27.888280 6.700000
14606 3 17.252789 -25.040541 6.700000
14607 3 17.669504 -25.746574 6.700000
14608 3 18.462042 -22.898835 6.700000
14609 3 18.878757 -23.604867 6.700000
14610 3 19.671295 -20.757128 6.700000
14611 3 20.088010 -21.463161 6.700000
14612 3 20.880548 -18.615422 6.700000
14613 3 21.297264 -19.321454 6.700000
14614 3 22.089802 -16.473715 6.700000
14615 3 22.506517 -17.179748 6.700000
14616 3 23.299055 -14.332009 6.700000
14617 3 23.715770 -15.038041 6.700000
14618 3 24.508308 -12.190302 6.700000
14619 3 24.925023 -12.896335 6.700000
14620 3 25.717561 -10.048596 6.700000
14621 3 26.134276 -10.754628 6.700000
14622 3 26.926814 -7.906889 6.700000
14623 3 27.343530 -8.612922 6.700000
14624 3 28.136068 -5.765183 6.700000
14625 3 28.552783 -6.471215 6.700000
14626 3 29.345321 -3.623476 6.700000
14627 3 29.762036 -4.329509 6.700000
14628 3 30.554574 -1.481770 6.700000
14629 3 30.971289 -2.187802 6.700000
14630 3 31.763827 0.659937 6.700000
14631 3 32.180542 -0.046096 6.700000
14632 3 32.973080 2.801643 6.700000
14633 3 33.389796 2.095611 6.700000
14634 3 34.182334 4.943350 6.700000
14635 3 34.599049 4.237317 6.700000
14636 3 35.391587 7.085056 6.700000
14637 3 35.808302 6.379024 6.700000
14638 3 36.600840 9.226763 6.700000
14639 3 37.017555 8.520730 6.700000
14640 3 37.810093 11.368469 6.700000
14641 3 38.226808 10.662437 6.700000
14642 3 39.019346 13.510176 6.700000
14643 3 39.436062 12.804143 6.700000
14644 3 40.228600 15.651882 6.700000
14645 3 40.645315 14.945850 6.700000
14646 3 41.437853 17.793589 6.700000
14647 3 41.854568 17.087556 6.700000
14648 3 42.647106 19.935295 6.700000
14649 3 43.063821 19.229263 6.700000
14650 3 43.856359 22.077002 6.700000
14651 3 44.273074 21.370969 6.700000
14652 3 45.065612 24.218708 6.700000
14653 3 45.482328 23.512676 6.700000
14654 3 46.274866 26.360415 6.700000
14655 3 46.691581 25.654382 6.700000
14656 3 47.484119 28.502121 6.700000
14657 3 47.900834 27.796089 6.700000
14658 3 48.693372 30.643827 6.700000
14659 3 49.110087 29.937795 6.700000
14660 3 49.902625 32.785534 6.700000
14661 3 50.319340 32.079502 6.700000
14662 3 51.111878 34.927240 6.700000
14663 3 51.528594 34.221208 6.700000
14664 3 52.321132 37.068947 6.700000
14665 3 52.737847 36.362915 6.700000
14666 3 53.530385 39.210653 6.700000
14667 3 53.947100 38.504621 6.700000
14668 3 54.739638 41.352360 6.700000
14669 3 55.156353 40.646328 6.700000
14670 3 55.948891 43.494066 6.700000
14671 3 56.365606 42.788034 6.700000
14672 3 57.158144 45.635773 6.700000
14673 3 57.574860 44.929741 6.700000
14674 3 58.367398 47.777479 6.700000
14675 3 58.784113 47.071447 6.700000
14676 3 1.573390 -57.142530 6.700000
14677 3 1.990105 -57.848562 6.700000
14678 3 2.782643 -55.000823 6.700000
14679 3 3.199358 -55.706855 6.700000
14680 3 3.991896 -52.859117 6.700000
14681 3 4.408611 -53.565149 6.700000
14682 3 5.201149 -50.717410 6.700000
14683 3 5.617865 -51.423442 6.700000
14684 3 6.410402 -48.575704 6.700000
14685 3 6.827118 -49.281736 6.700000
14686 3 7.619656 -46.433997 6.700000
14687 3 8.036371 -47.140029 6.700000
14688 3 8.828909 -44.292291 6.700000
14689 3 9.245624 -44.998323 6.700000
14690 3 10.038162 -42.150584 6.700000
14691 3 10.454877 -42.856616 6.700000
14692 3 11.247415 -40.008878 6.700000
14693 3 11.664130 -40.714910 6.700000
14694 3 12.456668 -37.867171 6.700000
14695 3 12.873384 -38.573203 6.700000
14696 3 13.665922 -35.725465 6.700000
14697 3 14.082637 -36.431497 6.700000
14698 3 14.875175 -33.583758 6.700000
14699 3 15.291890 -34.289790 6.700000
14700 3 16.084428 -31.442052 6.700000
14701 3 16.501143 -32.148084 6.700000
14702 3 17.293681 -29.300345 6.700000
14703 3 17.710396 -30.006377 6.700000
14704 3 18.502934 -27.158639 6.700000
14705 3 18.919650 -27.864671 6.700000
14706 3 19.712188 -25.016932 6.700000
14707 3 20.128903 -25.722965 6.700000
14708 3 20.921441 -22.875226 6.700000
14709 3 21.338156 -23.581258 6.700000
14710 3 22.130694 -20.733519 6.700000
14711 3 22.547409 -21.439552 6.700000
14712 3 23.339947 -18.591813 6.700000
14713 3 23.756662 -19.297845 6.700000
14714 3 24.549200 -16.450106 6.700000
14715 3 24.965916 -17.156139 6.700000
14716 3 25.758454 -14.308400 6.700000
14717 3 26.175169 -15.014432 6.700000
14718 3 26.967707 -12.166693 6.700000
14719 3 27.384422 -12.872726 6.700000
14720 3 28.176960 -10.024987 6.700000
14721 3 28.593675 -10.731019 6.700000
14722 3 29.386213 -7.883280 6.700000
14723 3 29.802928 -8.589313 6.700000
14724 3 30.595466 -5.741574 6.700000
14725 3 31.012182 -6.447606 6.700000
14726 3 31.804720 -3.599867 6.700000
14727 3 32.221435 -4.305900 6.700000
14728 3 33.013973 -1.458161 6.700000
14729 3 33.430688 -2.164193 6.700000
14730 3 34.223226 0.683546 6.700000
14731 3 34.639941 -0.022487 6.700000
14732 3 35.432479 2.825252 6.700000
14733 3 35.849194 2.119220 6.700000
14734 3 36.641732 4.966959 6.700000
14735 3 37.058448 4.260926 6.700000
14736 3 37.850986 7.108665 6.700000
14737 3 38.267701 6.402633 6.700000
14738 3 39.060239 9.250372 6.700000
14739 3 39.476954 8.544339 6.700000
14740 3 40.269492 11.392078 6.700000
14741 3 40.686207 10.686046 6.700000
14742 3 41.478745 13.533785 6.700000
14743 3 41.895460 12.827752 6.700000
14744 3 42.687998 15.675491 6.700000
14745 3 43.104714 14.969459 6.700000
14746 3 43.897252 17.817198 6.700000
14747 3 44.313967 17.111165 6.700000
14748 3 45.106505 19.958904 6.700000
14749 3 45.523220 19.252872 6.700000
14750 3 46.315758 22.100611 6.700000
14751 3 46.732473 21.394578 6.700000
14752 3 47.525011 24.242317 6.700000
14753 3 47.941726 23.536285 6.700000
14754 3 48.734264 26.384024 6.700000
14755 3 49.150980 25.677991 6.700000
14756 3 49.943518 28.525730 6.700000
14757 3 50.360233 27.819698 6.700000
14758 3 51.152771 30.667437 6.700000
14759 3 51.569486 29.961404 6.700000
14760 3 52.362024 32.809143 6.700000
14761 3 52.778739 32.103111 6.700000
14762 3 53.571277 34.950850 6.700000
14763 3 53.987992 34.244817 6.700000
14764 3 54.780530 37.092556 6.700000
14765 3 55.197246 36.386524 6.700000
14766 3 55.989784 39.234263 6.700000
14767 3 56.406499 38.528230 6.700000
14768 3 57.199037 41.375969 6.700000
14769 3 57.615752 40.669937 6.700000
14770 3 58.408290 43.517676 6.700000
14771 3 58.825005 42.811643 6.700000
14772 3 59.617543 45.659382 6.700000
14773 3 60.034258 44.953350 6.700000
14774 3 4.032789 -57.118920 6.700000
14775 3 4.449504 -57.824953 6.700000
14776 3 5.242042 -54.977214 6.700000
14777 3 5.658757 -55.683246 6.700000
14778 3 6.451295 -52.835507 6.700000
14779 3 6.868010 -53.541540 6.700000
14780 3 7.660548 -50.693801 6.700000
14781 3 8.077263 -51.399833 6.700000
14782 3 8.869801 -48.552094 6.700000
14783 3 9.286517 -49.258127 6.700000
14784 3 10.079055 -46.410388 6.700000
14785 3 10.495770 -47.116420 6.700000
14786 3 11.288308 -44.268681 6.700000
14787 3 11.705023 -44.974714 6.700000
14788 3 12.497561 -42.126975 6.700000
14789 3 12.914276 -42.833007 6.700000
14790 3 13.706814 -39.985268 6.700000
14791 3 14.123529 -40.691301 6.700000
14792 3 14.916067 -37.843562 6.700000
14793 3 15.332783 -38.549594 6.700000
14794 3 16.125320 -35.701855 6.700000
14795 3 16.542036 -36.407888 6.700000
14796 3 17.334574 -33.560149 6.700000
14797 3 17.751289 -34.266181 6.700000
14798 3 18.543827 -31.418442 6.700000
14799 3 18.960542 -32.124475 6.700000
14800 3 19.753080 -29.276736 6.700000
14801 3 20.169795 -29.982768 6.700000
14802 3 20.962333 -27.135029 6.700000
14803 3 21.379048 -27.841062 6.700000
14804 3 22.171586 -24.993323 6.700000
14805 3 22.588302 -25.699355 6.700000
14806 3 23.380840 -22.851616 6.700000
14807 3 23.797555 -23.557649 6.700000
14808 3 24.590093 -20.709910 6.700000
14809 3 25.006808 -21.415942 6.700000
14810 3 25.799346 -18.568203 6.700000
14811 3 26.216061 -19.274236 6.700000
14812 3 27.008599 -16.426497 6.700000
14813 3 27.425314 -17.132529 6.700000
14814 3 28.217852 -14.284790 6.700000
14815 3 28.634568 -14.990823 6.700000
14816 3 29.427106 -12.143084 6.700000
14817 3 29.843821 -12.849116 6.700000
14818 3 30.636359 -10.001377 6.700000
14819 3 31.053074 -10.707410 6.700000
14820 3 31.845612 -7.859671 6.700000
14821 3 32.262327 -8.565703 6.700000
14822 3 33.054865 -5.717964 6.700000
14823 3 33.471580 -6.423997 6.700000
14824 3 34.264118 -3.576258 6.700000
14825 3 34.680834 -4.282290 6.700000
14826 3 35.473372 -1.434551 6.700000
14827 3 35.890087 -2.140584 6.700000
14828 3 36.682625 0.707155 6.700000
14829 3 37.099340 0.001123 6.700000
14830 3 37.891878 2.848862 6.700000
14831 3 38.308593 2.142829 6.700000
14832 3 39.101131 4.990568 6.700000
14833 3 39.517846 4.284536 6.700000
14834 3 40.310384 7.132275 6.700000
14835 3 40.727100 6.426242 6.700000
14836 3 41.519638 9.273981 6.700000
14837 3 41.936353 8.567949 6.700000
14838 3 42.728891 11.415688 6.700000
14839 3 43.145606 10.709655 6.700000
14840 3 43.938144 13.557394 6.700000
14841 3 44.354859 12.851362 6.700000
14842 3 45.147397 15.699101 6.700000
14843 3 45.564112 14.993068 6.700000
14844 3 46.356650 17.840807 6.700000
14845 3 46.773366 17.134775 6.700000
14846 3 47.565904 19.982514 6.700000
14847 3 47.982619 19.276481 6.700000
14848 3 48.775157 22.124220 6.700000
14849 3 49.191872 21.418188 6.700000
14850 3 49.984410 24.265927 6.700000
14851 3 50.401125 23.559894 6.700000
14852 3 51.193663 26.407633 6.700000
14853 3 51.610378 25.701601 6.700000
14854 3 52.402916 28.549340 6.700000
14855 3 52.819632 27.843307 6.700000
14856 3 53.612170 30.691046 6.700000
14857 3 54.028885 29.985014 6.700000
14858 3 54.821423 32.832753 6.700000
14859 3 55.238138 32.126720 6.700000
14860 3 56.030676 34.974459 6.700000
14861 3 56.447391 34.268427 6.700000
14862 3 57.239929 37.116165 6.700000
14863 3 57.656644 36.410133 6.700000
14864 3 58.449182 39.257872 6.700000
14865 3 58.865898 38.551840 6.700000
14866 3 59.658436 41.399578 6.700000
14867 3 60.075151 40.693546 6.700000
14868 3 60.867689 43.541285 6.700000
14869 3 61.284404 42.835253 6.700000
14870 3 6.492187 -57.095311 6.700000
14871 3 6.908903 -57.801343 6.700000
14872 3 7.701441 -54.953604 6.700000
14873 3 8.118156 -55.659637 6.700000
14874 3 8.910694 -52.811898 6.700000
14875 3 9.327409 -53.517930 6.700000
14876 3 10.119947 -50.670192 6.700000
14877 3 10.536662 -51.376224 6.700000
14878 3 11.329200 -48.528485 6.700000
14879 3 11.745915 -49.234517 6.700000
14880 3 12.538453 -46.386779 6.700000
14881 3 12.955169 -47.092811 6.700000
14882 3 13.747707 -44.245072 6.700000
14883 3 14.164422 -44.951104 6.700000
14884 3 14.956960 -42.103366 6.700000
14885 3 15.373675 -42.809398 6.700000
14886 3 16.166213 -39.961659 6.700000
14887 3 16.582928 -40.667691 6.700000
14888 3 17.375466 -37.819953 6.700000
14889 3 17.792181 -38.525985 6.700000
14890 3 18.584719 -35.678246 6.700000
14891 3 19.001435 -36.384278 6.700000
14892 3 19.793973 -33.536540 6.700000
14893 3 20.210688 -34.242572 6.700000
14894 3 21.003226 -31.394833 6.700000
14895 3 21.419941 -32.100865 6.700000
14896 3 22.212479 -29.253127 6.700000
14897 3 22.629194 -29.959159 6.700000
14898 3 23.421732 -27.111420 6.700000
14899 3 23.838447 -27.817452 6.700000
14900 3 24.630985 -24.969714 6.700000
14901 3 25.047701 -25.675746 6.700000
14902 3 25.840239 -22.828007 6.700000
14903 3 26.256954 -23.534039 6.700000
14904 3 27.049492 -20.686301 6.700000
14905 3 27.466207 -21.392333 6.700000
14906 3 28.258745 -18.544594 6.700000
14907 3 28.675460 -19.250627 6.700000
14908 3 29.467998 -16.402888 6.700000
14909 3 29.884713 -17.108920 6.700000
14910 3 30.677251 -14.261181 6.700000
14911 3 31.093967 -14.967214 6.700000
14912 3 31.886504 -12.119475 6.700000
14913 3 32.303220 -12.825507 6.700000
14914 3 33.095758 -9.977768 6.700000
14915 3 33.512473 -10.683801 6.700000
14916 3 34.305011 -7.836062 6.700000
14917 3 34.721726 -8.542094 6.700000
14918 3 35.514264 -5.694355 6.700000
14919 3 35.930979 -6.400388 6.700000
14920 3 36.723517 -3.552649 6.700000
14921 3 37.140232 -4.258681 6.700000
14922 3 37.932770 -1.410942 6.700000
14923 3 38.349486 -2.116975 6.700000
14924 3 39.142024 0.730764 6.700000
14925 3 39.558739 0.024732 6.700000
14926 3 40.351277 2.872471 6.700000
14927 3 40.767992 2.166438 6.700000
14928 3 41.560530 5.014177 6.700000
14929 3 41.977245 4.308145 6.700000
14930 3 42.769783 7.155884 6.700000
14931 3 43.186498 6.449851 6.700000
14932 3 43.979036 9.297590 6.700000
14933 3 44.395752 8.591558 6.700000
14934 3 45.188290 11.439297 6.700000
14935 3 45.605005 10.733264 6.700000
14936 3 46.397543 13.581003 6.700000
14937 3 46.814258 12.874971 6.700000
14938 3 47.606796 15.722710 6.700000
14939 3 48.023511 15.016677 6.700000
14940 3 48.816049 17.864416 6.700000
14941 3 49.232764 17.158384 6.700000
14942 3 50.025302 20.006123 6.700000
14943 3 50.442018 19.300090 6.700000
14944 3 51.234556 22.147829 6.700000
14945 3 51.651271 21.441797 6.700000
14946 3 52.443809 24.289536 6.700000
14947 3 52.860524 23.583503 6.700000
14948 3 53.653062 26.431242 6.700000
14949 3 54.069777 25.725210 6.700000
14950 3 54.862315 28.572949 6.700000
14951 3 55.279030 27.866916 6.700000
14952 3 56.071568 30.714655 6.700000
14953 3 56.488284 30.008623 6.700000
14954 3 57.280822 32.856362 6.700000
14955 3 57.697537 32.150329 6.700000
14956 3 58.490075 34.998068 6.700000
14957 3 58.906790 34.292036 6.700000
14958 3 59.699328 37.139775 6.700000
14959 3 60.116043 36.433742 6.700000
14960 3 60.908581 39.281481 6.700000
14961 3 61.325296 38.575449 6.700000
14962 3 62.117834 41.423188 6.700000
14963 3 62.534550 40.717155 6.700000
14964 3 63.327088 43.564894 6.700000
14965 3 63.743803 42.858862 6.700000
14966 3 8.951586 -57.071702 6.700000
14967 3 9.368301 -57.777734 6.700000
14968 3 10.160839 -54.929995 6.700000
14969 3 10.577555 -55.636028 6.700000
14970 3 11.370093 -52.788289 6.700000
14971 3 11.786808 -53.494321 6.700000
14972 3 12.579346 -50.646582 6.700000
14973 3 12.996061 -51.352615 6.700000
14974 3 13.788599 -48.504876 6.700000
14975 3 14.205314 -49.210908 6.700000
14976 3 14.997852 -46.363169 6.700000
14977 3 15.414567 -47.069202 6.700000
14978 3 16.207105 -44.221463 6.700000
14979 3 16.623821 -44.927495 6.700000
14980 3 17.416359 -42.079756 6.700000
14981 3 17.833074 -42.785789 6.700000
14982 3 18.625612 -39.938050 6.700000
14983 3 19.042327 -40.644082 6.700000
14984 3 19.834865 -37.796343 6.700000
14985 3 20.251580 -38.502376 6.700000
14986 3 21.044118 -35.654637 6.700000
14987 3 21.460833 -36.360669 6.700000
14988 3 22.253371 -33.512930 6.700000
14989 3 22.670087 -34.218963 6.700000
14990 3 23.462625 -31.371224 6.700000
14991 3 23.879340 -32.077256 6.700000
14992 3 24.671878 -29.229517 6.700000
14993 3 25.088593 -29.935550 6.700000
14994 3 25.881131 -27.087811 6.700000
14995 3 26.297846 -27.793843 6.700000
14996 3 27.090384 -24.946104 6.700000
14997 3 27.507099 -25.652137 6.700000
14998 3 28.299637 -22.804398 6.700000
14999 3 28.716353 -23.510430 6.700000
15000 3 29.508891 -20.662691 6.700000
15001 3 29.925606 -21.368724 6.700000
15002 3 30.718144 -18.520985 6.700000
15003 3 31.134859 -19.227017 6.700000
15004 3 31.927397 -16.379278 6.700000
15005 3 32.344112 -17.085311 6.700000
15006 3 33.136650 -14.237572 6.700000
15007 3 33.553365 -14.943604 6.700000
15008 3 34.345903 -12.095865 6.700000
15009 3 34.762619 -12.801898 6.700000
15010 3 35.555157 -9.954159 6.700000
15011 3 35.971872 -10.660191 6.700000
15012 3 36.764410 -7.812452 6.700000
15013 3 37.181125 -8.518485 6.700000
15014 3 37.973663 -5.670746 6.700000
15015 3 38.390378 -6.376778 6.700000
15016 3 39.182916 -3.529039 6.700000
15017 3 39.599631 -4.235072 6.700000
15018 3 40.392169 -1.387333 6.700000
15019 3 40.808885 -2.093365 6.700000
15020 3 41.601422 0.754374 6.700000
15021 3 42.018138 0.048341 6.700000
15022 3 42.810676 2.896080 6.700000
15023 3 43.227391 2.190048 6.700000
15024 3 44.019929 5.037787 6.700000
15025 3 44.436644 4.331754 6.700000
15026 3 45.229182 7.179493 6.700000
15027 3 45.645897 6.473461 6.700000
15028 3 46.438435 9.321200 6.700000
15029 3 46.855150 8.615167 6.700000
15030 3 47.647688 11.462906 6.700000
15031 3 48.064404 10.756874 6.700000
15032 3 48.856942 13.604613 6.700000
15033 3 49.273657 12.898580 6.700000
15034 3 50.066195 15.746319 6.700000
15035 3 50.482910 15.040287 6.700000
15036 3 51.275448 17.888026 6.700000
15037 3 51.692163 17.181993 6.700000
15038 3 52.484701 20.029732 6.700000
15039 3 52.901416 19.323700 6.700000
15040 3 53.693954 22.171439 6.700000
15041 3 54.110670 21.465406 6.700000
15042 3 54.903208 24.313145 6.700000
15043 3 55.319923 23.607113 6.700000
15044 3 56.112461 26.454852 6.700000
15045 3 56.529176 25.748819 6.700000
15046 3 57.321714 28.596558 6.700000
15047 3 57.738429 27.890526 6.700000
15048 3 58.530967 30.738265 6.700000
15049 3 58.947682 30.032232 6.700000
15050 3 59.740220 32.879971 6.700000
15051 3 60.156936 32.173939 6.700000
15052 3 60.949474 35.021678 6.700000
15053 3 61.366189 34.315645 6.700000
15054 3 62.158727 37.163384 6.700000
15055 3 62.575442 36.457352 6.700000
15056 3 63.367980 39.305091 6.700000
15057 3 63.784695 38.599058 6.700000
15058 3 64.577233 41.446797 6.700000
15059 3 64.993948 40.740765 6.700000
15060 3 11.410985 -57.048092 6.700000
15061 3 11.827700 -57.754125 6.700000
15062 3 12.620238 -54.906386 6.700000
15063 3 13.036953 -55.612418 6.700000
15064 3 13.829491 -52.764679 6.700000
15065 3 14.246207 -53.470712 6.700000
15066 3 15.038745 -50.622973 6.700000
15067 3 15.455460 -51.329005 6.700000
15068 3 16.247998 -48.481266 6.700000
15069 3 16.664713 -49.187299 6.700000
15070 3 17.457251 -46.339560 6.700000
15071 3 17.873966 -47.045592 6.700000
15072 3 18.666504 -44.197854 6.700000
15073 3 19.083219 -44.903886 6.700000
15074 3 19.875757 -42.056147 6.700000
15075 3 20.292473 -42.762179 6.700000
15076 3 21.085011 -39.914441 6.700000
15077 3 21.501726 -40.620473 6.700000
15078 3 22.294264 -37.772734 6.700000
15079 3 22.710979 -38.478766 6.700000
15080 3 23.503517 -35.631028 6.700000
15081 3 23.920232 -36.337060 6.700000
15082 3 24.712770 -33.489321 6.700000
15083 3 25.129485 -34.195353 6.700000
15084 3 25.922023 -31.347615 6.700000
15085 3 26.338739 -32.053647 6.700000
15086 3 27.131277 -29.205908 6.700000
15087 3 27.547992 -29.911940 6.700000
15088 3 28.340530 -27.064202 6.700000
15089 3 28.757245 -27.770234 6.700000
15090 3 29.549783 -24.922495 6.700000
15091 3 29.966498 -25.628527 6.700000
15092 3 30.759036 -22.780789 6.700000
15093 3 31.175751 -23.486821 6.700000
15094 3 31.968289 -20.639082 6.700000
15095 3 32.385005 -21.345114 6.700000
15096 3 33.177543 -18.497376 6.700000
15097 3 33.594258 -19.203408 6.700000
15098 3 34.386796 -16.355669 6.700000
15099 3 34.803511 -17.061701 6.700000
15100 3 35.596049 -14.213963 6.700000
15101 3 36.012764 -14.919995 6.700000
15102 3 36.805302 -12.072256 6.700000
15103 3 37.222017 -12.778289 6.700000
15104 3 38.014555 -9.930550 6.700000
15105 3 38.431271 -10.636582 6.700000
15106 3 39.223809 -7.788843 6.700000
15107 3 39.640524 -8.494876 6.700000
15108 3 40.433062 -5.647137 6.700000
15109 3 40.849777 -6.353169 6.700000
15110 3 41.642315 -3.505430 6.700000
15111 3 42.059030 -4.211463 6.700000
15112 3 42.851568 -1.363724 6.700000
15113 3 43.268283 -2.069756 6.700000
15114 3 44.060821 0.777983 6.700000
15115 3 44.477537 0.071950 6.700000
15116 3 45.270075 2.919689 6.700000
15117 3 45.686790 2.213657 6.700000
15118 3 46.479328 5.061396 6.700000
15119 3 46.896043 4.355363 6.700000
15120 3 47.688581 7.203102 6.700000
15121 3 48.105296 6.497070 6.700000
15122 3 48.897834 9.344809 6.700000
15123 3 49.314549 8.638776 6.700000
15124 3 50.107087 11.486515 6.700000
15125 3 50.523803 10.780483 6.700000
15126 3 51.316341 13.628222 6.700000
15127 3 51.733056 12.922189 6.700000
15128 3 52.525594 15.769928 6.700000
15129 3 52.942309 15.063896 6.700000
15130 3 53.734847 17.911635 6.700000
15131 3 54.151562 17.205602 6.700000
15132 3 54.944100 20.053341 6.700000
15133 3 55.360815 19.347309 6.700000
15134 3 56.153353 22.195048 6.700000
15135 3 56.570069 21.489015 6.700000
15136 3 57.362606 24.336754 6.700000
15137 3 57.779322 23.630722 6.700000
15138 3 58.571860 26.478461 6.700000
15139 3 58.988575 25.772428 6.700000
15140 3 59.781113 28.620167 6.700000
15141 3 60.197828 27.914135 6.700000
15142 3 60.990366 30.761874 6.700000
15143 3 61.407081 30.055841 6.700000
15144 3 62.199619 32.903580 6.700000
15145 3 62.616334 32.197548 6.700000
15146 3 63.408872 35.045287 6.700000
15147 3 63.825588 34.339254 6.700000
15148 3 64.618126 37.186993 6.700000
15149 3 65.034841 36.480961 6.700000
15150 3 65.827379 39.328700 6.700000
15151 3 66.244094 38.622667 6.700000
15152 3 13.870384 -57.024483 6.700000
15153 3 14.287099 -57.730516 6.700000
15154 3 15.079637 -54.882777 6.700000
15155 3 15.496352 -55.588809 6.700000
15156 3 16.288890 -52.741070 6.700000
15157 3 16.705605 -53.447103 6.700000
15158 3 17.498143 -50.599364 6.700000
15159 3 17.914859 -51.305396 6.700000
15160 3 18.707397 -48.457657 6.700000
15161 3 19.124112 -49.163690 6.700000
15162 3 19.916650 -46.315951 6.700000
15163 3 20.333365 -47.021983 6.700000
15164 3 21.125903 -44.174244 6.700000
15165 3 21.542618 -44.880277 6.700000
15166 3 22.335156 -42.032538 6.700000
15167 3 22.751871 -42.738570 6.700000
15168 3 23.544409 -39.890831 6.700000
15169 3 23.961125 -40.596864 6.700000
15170 3 24.753663 -37.749125 6.700000
15171 3 25.170378 -38.455157 6.700000
15172 3 25.962916 -35.607418 6.700000
15173 3 26.379631 -36.313451 6.700000
15174 3 27.172169 -33.465712 6.700000
15175 3 27.588884 -34.171744 6.700000
15176 3 28.381422 -31.324005 6.700000
15177 3 28.798137 -32.030038 6.700000
15178 3 29.590675 -29.182299 6.700000
15179 3 30.007391 -29.888331 6.700000
15180 3 30.799929 -27.040592 6.700000
15181 3 31.216644 -27.746625 6.700000
15182 3 32.009182 -24.898886 6.700000
15183 3 32.425897 -25.604918 6.700000
15184 3 33.218435 -22.757179 6.700000
15185 3 33.635150 -23.463212 6.700000
15186 3 34.427688 -20.615473 6.700000
15187 3 34.844403 -21.321505 6.700000
15188 3 35.636941 -18.473766 6.700000
15189 3 36.053657 -19.179799 6.700000
15190 3 36.846195 -16.332060 6.700000
15191 3 37.262910 -17.038092 6.700000
15192 3 38.055448 -14.190353 6.700000
15193 3 38.472163 -14.896386 6.700000
15194 3 39.264701 -12.048647 6.700000
15195 3 39.681416 -12.754679 6.700000
15196 3 40.473954 -9.906940 6.700000
15197 3 40.890669 -10.612973 6.700000
15198 3 41.683207 -7.765234 6.700000
15199 3 42.099923 -8.471266 6.700000
15200 3 42.892461 -5.623527 6.700000
15201 3 43.309176 -6.329560 6.700000
15202 3 44.101714 -3.481821 6.700000
15203 3 44.518429 -4.187853 6.700000
15204 3 45.310967 -1.340114 6.700000
15205 3 45.727682 -2.046147 6.700000
15206 3 46.520220 0.801592 6.700000
15207 3 46.936935 0.095560 6.700000
15208 3 47.729473 2.943299 6.700000
15209 3 48.146189 2.237266 6.700000
15210 3 48.938727 5.085005 6.700000
15211 3 49.355442 4.378973 6.700000
15212 3 50.147980 7.226712 6.700000
15213 3 50.564695 6.520679 6.700000
15214 3 51.357233 9.368418 6.700000
15215 3 51.773948 8.662386 6.700000
15216 3 52.566486 11.510125 6.700000
15217 3 52.983201 10.804092 6.700000
15218 3 53.775739 13.651831 6.700000
15219 3 54.192455 12.945799 6.700000
15220 3 54.984993 15.793538 6.700000
15221 3 55.401708 15.087505 6.700000
15222 3 56.194246 17.935244 6.700000
15223 3 56.610961 17.229212 6.700000
15224 3 57.403499 20.076951 6.700000
15225 3 57.820214 19.370918 6.700000
15226 3 58.612752 22.218657 6.700000
15227 3 59.029467 21.512625 6.700000
15228 3 59.822005 24.360364 6.700000
15229 3 60.238721 23.654331 6.700000
15230 3 61.031259 26.502070 6.700000
15231 3 61.447974 25.796038 6.700000
15232 3 62.240512 28.643777 6.700000
15233 3 62.657227 27.937744 6.700000
15234 3 63.449765 30.785483 6.700000
15235 3 63.866480 30.079451 6.700000
15236 3 64.659018 32.927190 6.700000
15237 3 65.075733 32.221157 6.700000
15238 3 65.868271 35.068896 6.700000
15239 3 66.284987 34.362864 6.700000
15240 3 67.077524 37.210603 6.700000
15241 3 67.494240 36.504570 6.700000
15242 3 16.329783 -57.000874 6.700000
15243 3 16.746498 -57.706906 6.700000
15244 3 17.539036 -54.859167 6.700000
15245 3 17.955751 -55.565200 6.700000
15246 3 18.748289 -52.717461 6.700000
15247 3 19.165004 -53.423493 6.700000
15248 3 19.957542 -50.575754 6.700000
15249 3 20.374257 -51.281787 6.700000
15250 3 21.166795 -48.434048 6.700000
15251 3 21.583511 -49.140080 6.700000
15252 3 22.376049 -46.292341 6.700000
15253 3 22.792764 -46.998374 6.700000
15254 3 23.585302 -44.150635 6.700000
15255 3 24.002017 -44.856667 6.700000
15256 3 24.794555 -42.008928 6.700000
15257 3 25.211270 -42.714961 6.700000
15258 3 26.003808 -39.867222 6.700000
15259 3 26.420523 -40.573254 6.700000
15260 3 27.213061 -37.725516 6.700000
15261 3 27.629777 -38.431548 6.700000
15262 3 28.422315 -35.583809 6.700000
15263 3 28.839030 -36.289841 6.700000
15264 3 29.631568 -33.442103 6.700000
15265 3 30.048283 -34.148135 6.700000
15266 3 30.840821 -31.300396 6.700000
15267 3 31.257536 -32.006428 6.700000
15268 3 32.050074 -29.158690 6.700000
15269 3 32.466789 -29.864722 6.700000
15270 3 33.259327 -27.016983 6.700000
15271 3 33.676043 -27.723015 6.700000
15272 3 34.468581 -24.875277 6.700000
15273 3 34.885296 -25.581309 6.700000
15274 3 35.677834 -22.733570 6.700000
15275 3 36.094549 -23.439602 6.700000
15276 3 36.887087 -20.591864 6.700000
15277 3 37.303802 -21.297896 6.700000
15278 3 38.096340 -18.450157 6.700000
15279 3 38.513055 -19.156189 6.700000
15280 3 39.305593 -16.308451 6.700000
15281 3 39.722309 -17.014483 6.700000
15282 3 40.514847 -14.166744 6.700000
15283 3 40.931562 -14.872776 6.700000
15284 3 41.724100 -12.025038 6.700000
15285 3 42.140815 -12.731070 6.700000
15286 3 42.933353 -9.883331 6.700000
15287 3 43.350068 -10.589363 6.700000
15288 3 44.142606 -7.741625 6.700000
15289 3 44.559321 -8.447657 6.700000
15290 3 45.351859 -5.599918 6.700000
15291 3 45.768575 -6.305951 6.700000
15292 3 46.561113 -3.458212 6.700000
15293 3 46.977828 -4.164244 6.700000
15294 3 47.770366 -1.316505 6.700000
15295 3 48.187081 -2.022538 6.700000
15296 3 48.979619 0.825201 6.700000
15297 3 49.396334 0.119169 6.700000
15298 3 50.188872 2.966908 6.700000
15299 3 50.605587 2.260875 6.700000
15300 3 51.398125 5.108614 6.700000
15301 3 51.814841 4.402582 6.700000
15302 3 52.607379 7.250321 6.700000
15303 3 53.024094 6.544288 6.700000
15304 3 53.816632 9.392027 6.700000
15305 3 54.233347 8.685995 6.700000
15306 3 55.025885 11.533734 6.700000
15307 3 55.442600 10.827701 6.700000
15308 3 56.235138 13.675440 6.700000
15309 3 56.651853 12.969408 6.700000
15310 3 57.444391 15.817147 6.700000
15311 3 57.861107 15.111114 6.700000
15312 3 58.653645 17.958853 6.700000
15313 3 59.070360 17.252821 6.700000
15314 3 59.862898 20.100560 6.700000
15315 3 60.279613 19.394527 6.700000
15316 3 61.072151 22.242266 6.700000
15317 3 61.488866 21.536234 6.700000
15318 3 62.281404 24.383973 6.700000
15319 3 62.698119 23.677940 6.700000
15320 3 63.490657 26.525679 6.700000
15321 3 63.907373 25.819647 6.700000
15322 3 64.699911 28.667386 6.700000
15323 3 65.116626 27.961353 6.700000
15324 3 65.909164 30.809092 6.700000
15325 3 66.325879 30.103060 6.700000
15326 3 67.118417 32.950799 6.700000
15327 3 67.535132 32.244766 6.700000
15328 3 68.327670 35.092505 6.700000
15329 3 68.744385 34.386473 6.700000
15330 3 18.789182 -56.977265 6.700000
15331 3 19.205897 -57.683297 6.700000
15332 3 19.998435 -54.835558 6.700000
15333 3 20.415150 -55.541591 6.700000
15334 3 21.207688 -52.693852 6.700000
15335 3 21.624403 -53.399884 6.700000
15336 3 22.416941 -50.552145 6.700000
15337 3 22.833656 -51.258178 6.700000
15338 3 23.626194 -48.410439 6.700000
15339 3 24.042910 -49.116471 6.700000
15340 3 24.835447 -46.268732 6.700000
15341 3 25.252163 -46.974765 6.700000
15342 3 26.044701 -44.127026 6.700000
15343 3 26.461416 -44.833058 6.700000
15344 3 27.253954 -41.985319 6.700000
15345 3 27.670669 -42.691352 6.700000
15346 3 28.463207 -39.843613 6.700000
15347 3 28.879922 -40.549645 6.700000
15348 3 29.672460 -37.701906 6.700000
15349 3 30.089175 -38.407939 6.700000
15350 3 30.881713 -35.560200 6.700000
15351 3 31.298429 -36.266232 6.700000
15352 3 32.090967 -33.418493 6.700000
15353 3 32.507682 -34.124526 6.700000
15354 3 33.300220 -31.276787 6.700000
15355 3 33.716935 -31.982819 6.700000
15356 3 34.509473 -29.135080 6.700000
15357 3 34.926188 -29.841113 6.700000
15358 3 35.718726 -26.993374 6.700000
15359 3 36.135441 -27.699406 6.700000
15360 3 36.927979 -24.851667 6.700000
15361 3 37.344695 -25.557700 6.700000
15362 3 38.137233 -22.709961 6.700000
15363 3 38.553948 -23.415993 6.700000
15364 3 39.346486 -20.568254 6.700000
15365 3 39.763201 -21.274287 6.700000
15366 3 40.555739 -18.426548 6.700000
15367 3 40.972454 -19.132580 6.700000
15368 3 41.764992 -16.284841 6.700000
15369 3 42.181707 -16.990874 6.700000
15370 3 42.974245 -14.143135 6.700000
15371 3 43.390961 -14.849167 6.700000
15372 3 44.183499 -12.001428 6.700000
15373 3 44.600214 -12.707461 6.700000
15374 3 45.392752 -9.859722 6.700000
15375 3 45.809467 -10.565754 6.700000
15376 3 46.602005 -7.718015 6.700000
15377 3 47.018720 -8.424048 6.700000
15378 3 47.811258 -5.576309 6.700000
15379 3 48.227973 -6.282341 6.700000
15380 3 49.020511 -3.434602 6.700000
15381 3 49.437227 -4.140635 6.700000
15382 3 50.229765 -1.292896 6.700000
15383 3 50.646480 -1.998928 6.700000
15384 3 51.439018 0.848811 6.700000
15385 3 51.855733 0.142778 6.700000
15386 3 52.648271 2.990517 6.700000
15387 3 53.064986 2.284485 6.700000
15388 3 53.857524 5.132224 6.700000
15389 3 54.274239 4.426191 6.700000
15390 3 55.066777 7.273930 6.700000
15391 3 55.483493 6.567898 6.700000
15392 3 56.276031 9.415637 6.700000
15393 3 56.692746 8.709604 6.700000
15394 3 57.485284 11.557343 6.700000
15395 3 57.901999 10.851311 6.700000
15396 3 58.694537 13.699050 6.700000
15397 3 59.111252 12.993017 6.700000
15398 3 59.903790 15.840756 6.700000
15399 3 60.320505 15.134724 6.700000
15400 3 61.113043 17.982463 6.700000
15401 3 61.529759 17.276430 6.700000
15402 3 62.322297 20.124169 6.700000
15403 3 62.739012 19.418137 6.700000
15404 3 63.531550 22.265876 6.700000
15405 3 63.948265 21.559843 6.700000
15406 3 64.740803 24.407582 6.700000
15407 3 65.157518 23.701550 6.700000
15408 3 65.950056 26.549289 6.700000
15409 3 66.366771 25.843256 6.700000
15410 3 67.159309 28.690995 6.700000
15411 3 67.576025 27.984963 6.700000
15412 3 68.368563 30.832702 6.700000
15413 3 68.785278 30.126669 6.700000
15414 3 21.248580 -56.953655 6.700000
15415 3 21.665296 -57.659688 6.700000
15416 3 22.457834 -54.811949 6.700000
15417 3 22.874549 -55.517981 6.700000
15418 3 23.667087 -52.670242 6.700000
15419 3 24.083802 -53.376275 6.700000
15420 3 24.876340 -50.528536 6.700000
15421 3 25.293055 -51.234568 6.700000
15422 3 26.085593 -48.386829 6.700000
15423 3 26.502308 -49.092862 6.700000
15424 3 27.294846 -46.245123 6.700000
15425 3 27.711562 -46.951155 6.700000
15426 3 28.504100 -44.103416 6.700000
15427 3 28.920815 -44.809449 6.700000
15428 3 29.713353 -41.961710 6.700000
15429 3 30.130068 -42.667742 6.700000
15430 3 30.922606 -39.820003 6.700000
15431 3 31.339321 -40.526036 6.700000
15432 3 32.131859 -37.678297 6.700000
15433 3 32.548574 -38.384329 6.700000
15434 3 33.341112 -35.536590 6.700000
15435 3 33.757828 -36.242623 6.700000
15436 3 34.550365 -33.394884 6.700000
15437 3 34.967081 -34.100916 6.700000
15438 3 35.759619 -31.253178 6.700000
15439 3 36.176334 -31.959210 6.700000
15440 3 36.968872 -29.111471 6.700000
15441 3 37.385587 -29.817503 6.700000
15442 3 38.178125 -26.969765 6.700000
15443 3 38.594840 -27.675797 6.700000
15444 3 39.387378 -24.828058 6.700000
15445 3 39.804093 -25.534090 6.700000
15446 3 40.596631 -22.686352 6.700000
15447 3 41.013347 -23.392384 6.700000
15448 3 41.805885 -20.544645 6.700000
15449 3 42.222600 -21.250677 6.700000
15450 3 43.015138 -18.402939 6.700000
15451 3 43.431853 -19.108971 6.700000
15452 3 44.224391 -16.261232 6.700000
15453 3 44.641106 -16.967264 6.700000
15454 3 45.433644 -14.119526 6.700000
15455 3 45.850359 -14.825558 6.700000
15456 3 46.642897 -11.977819 6.700000
15457 3 47.059613 -12.683851 6.700000
15458 3 47.852151 -9.836113 6.700000
15459 3 48.268866 -10.542145 6.700000
15460 3 49.061404 -7.694406 6.700000
15461 3 49.478119 -8.400438 6.700000
15462 3 50.270657 -5.552700 6.700000
15463 3 50.687372 -6.258732 6.700000
15464 3 51.479910 -3.410993 6.700000
15465 3 51.896625 -4.117025 6.700000
15466 3 52.689163 -1.269287 6.700000
15467 3 53.105879 -1.975319 6.700000
15468 3 53.898417 0.872420 6.700000
15469 3 54.315132 0.166387 6.700000
15470 3 55.107670 3.014126 6.700000
15471 3 55.524385 2.308094 6.700000
15472 3 56.316923 5.155833 6.700000
15473 3 56.733638 4.449800 6.700000
15474 3 57.526176 7.297539 6.700000
15475 3 57.942891 6.591507 6.700000
15476 3 58.735429 9.439246 6.700000
15477 3 59.152145 8.733213 6.700000
15478 3 59.944683 11.580952 6.700000
15479 3 60.361398 10.874920 6.700000
15480 3 61.153936 13.722659 6.700000
15481 3 61.570651 13.016626 6.700000
15482 3 62.363189 15.864365 6.700000
15483 3 62.779904 15.158333 6.700000
15484 3 63.572442 18.006072 6.700000
15485 3 63.989157 17.300039 6.700000
15486 3 64.781695 20.147778 6.700000
15487 3 65.198411 19.441746 6.700000
15488 3 65.990949 22.289485 6.700000
15489 3 66.407664 21.583452 6.700000
15490 3 67.200202 24.431191 6.700000
15491 3 67.616917 23.725159 6.700000
15492 3 68.409455 26.572898 6.700000
15493 3 68.826170 25.866865 6.700000
15494 3 69.618708 28.714604 6.700000
15495 3 70.035423 28.008572 6.700000
15496 3 23.707979 -56.930046 6.700000
15497 3 24.124694 -57.636079 6.700000
15498 3 24.917232 -54.788340 6.700000
15499 3 25.333948 -55.494372 6.700000
15500 3 26.126486 -52.646633 6.700000
15501 3 26.543201 -53.352666 6.700000
15502 3 27.335739 -50.504927 6.700000
15503 3 27.752454 -51.210959 6.700000
15504 3 28.544992 -48.363220 6.700000
15505 3 28.961707 -49.069253 6.700000
15506 3 29.754245 -46.221514 6.700000
15507 3 30.170960 -46.927546 6.700000
15508 3 30.963498 -44.079807 6.700000
15509 3 31.380214 -44.785840 6.700000
15510 3 32.172752 -41.938101 6.700000
15511 3 32.589467 -42.644133 6.700000
15512 3 33.382005 -39.796394 6.700000
15513 3 33.798720 -40.502427 6.700000
15514 3 34.591258 -37.654688 6.700000
15515 3 35.007973 -38.360720 6.700000
15516 3 35.800511 -35.512981 6.700000
15517 3 36.217226 -36.219014 6.700000
15518 3 37.009764 -33.371275 6.700000
15519 3 37.426480 -34.077307 6.700000
15520 3 38.219018 -31.229568 6.700000
15521 3 38.635733 -31.935601 6.700000
15522 3 39.428271 -29.087862 6.700000
15523 3 39.844986 -29.793894 6.700000
15524 3 40.637524 -26.946155 6.700000
15525 3 41.054239 -27.652188 6.700000
15526 3 41.846777 -24.804449 6.700000
15527 3 42.263492 -25.510481 6.700000
15528 3 43.056030 -22.662742 6.700000
15529 3 43.472746 -23.368775 6.700000
15530 3 44.265284 -20.521036 6.700000
15531 3 44.681999 -21.227068 6.700000
15532 3 45.474537 -18.379329 6.700000
15533 3 45.891252 -19.085362 6.700000
15534 3 46.683790 -16.237623 6.700000
15535 3 47.100505 -16.943655 6.700000
15536 3 47.893043 -14.095916 6.700000
15537 3 48.309758 -14.801949 6.700000
15538 3 49.102296 -11.954210 6.700000
15539 3 49.519012 -12.660242 6.700000
15540 3 50.311549 -9.812503 6.700000
15541 3 50.728265 -10.518536 6.700000
15542 3 51.520803 -7.670797 6.700000
15543 3 51.937518 -8.376829 6.700000
15544 3 52.730056 -5.529090 6.700000
15545 3 53.146771 -6.235123 6.700000
15546 3 53.939309 -3.387384 6.700000
15547 3 54.356024 -4.093416 6.700000
15548 3 55.148562 -1.245677 6.700000
15549 3 55.565277 -1.951710 6.700000
15550 3 56.357815 0.896029 6.700000
15551 3 56.774531 0.189997 6.700000
15552 3 57.567069 3.037736 6.700000
15553 3 57.983784 2.331703 6.700000
15554 3 58.776322 5.179442 6.700000
15555 3 59.193037 4.473410 6.700000
15556 3 59.985575 7.321149 6.700000
15557 3 60.402290 6.615116 6.700000
15558 3 61.194828 9.462855 6.700000
15559 3 61.611543 8.756823 6.700000
15560 3 62.404081 11.604562 6.700000
15561 3 62.820797 10.898529 6.700000
15562 3 63.613335 13.746268 6.700000
15563 3 64.030050 13.040236 6.700000
15564 3 64.822588 15.887975 6.700000
15565 3 65.239303 15.181942 6.700000
15566 3 66.031841 18.029681 6.700000
15567 3 66.448556 17.323649 6.700000
15568 3 67.241094 20.171388 6.700000
15569 3 67.657809 19.465355 6.700000
15570 3 68.450347 22.313094 6.700000
15571 3 68.867063 21.607062 6.700000
15572 3 69.659601 24.454801 6.700000
15573 3 70.076316 23.748768 6.700000
15574 3 70.868854 26.596507 6.700000
15575 3 71.285569 25.890475 6.700000
15576 3 26.167378 -56.906437 6.700000
15577 3 26.584093 -57.612469 6.700000
15578 3 27.376631 -54.764730 6.700000
15579 3 27.793346 -55.470763 6.700000
15580 3 28.585884 -52.623024 6.700000
15581 3 29.002600 -53.329056 6.700000
15582 3 29.795138 -50.481317 6.700000
15583 3 30.211853 -51.187350 6.700000
15584 3 31.004391 -48.339611 6.700000
15585 3 31.421106 -49.045643 6.700000
15586 3 32.213644 -46.197904 6.700000
15587 3 32.630359 -46.903937 6.700000
15588 3 33.422897 -44.056198 6.700000
15589 3 33.839612 -44.762230 6.700000
15590 3 34.632150 -41.914491 6.700000
15591 3 35.048866 -42.620524 6.700000
15592 3 35.841404 -39.772785 6.700000
15593 3 36.258119 -40.478817 6.700000
15594 3 37.050657 -37.631078 6.700000
15595 3 37.467372 -38.337111 6.700000
15596 3 38.259910 -35.489372 6.700000
15597 3 38.676625 -36.195404 6.700000
15598 3 39.469163 -33.347665 6.700000
15599 3 39.885878 -34.053698 6.700000
15600 3 40.678416 -31.205959 6.700000
15601 3 41.095132 -31.911991 6.700000
15602 3 41.887670 -29.064252 6.700000
15603 3 42.304385 -29.770285 6.700000
15604 3 43.096923 -26.922546 6.700000
15605 3 43.513638 -27.628578 6.700000
15606 3 44.306176 -24.780840 6.700000
15607 3 44.722891 -25.486872 6.700000
15608 3 45.515429 -22.639133 6.700000
15609 3 45.932144 -23.345165 6.700000
15610 3 46.724682 -20.497427 6.700000
15611 3 47.141398 -21.203459 6.700000
15612 3 47.933936 -18.355720 6.700000
15613 3 48.350651 -19.061752 6.700000
15614 3 49.143189 -16.214014 6.700000
15615 3 49.559904 -16.920046 6.700000
15616 3 50.352442 -14.072307 6.700000
15617 3 50.769157 -14.778339 6.700000
15618 3 51.561695 -11.930601 6.700000
15619 3 51.978410 -12.636633 6.700000
15620 3 52.770948 -9.788894 6.700000
15621 3 53.187664 -10.494926 6.700000
15622 3 53.980202 -7.647188 6.700000
15623 3 54.396917 -8.353220 6.700000
15624 3 55.189455 -5.505481 6.700000
15625 3 55.606170 -6.211513 6.700000
15626 3 56.398708 -3.363775 6.700000
15627 3 56.815423 -4.069807 6.700000
15628 3 57.607961 -1.222068 6.700000
15629 3 58.024676 -1.928100 6.700000
15630 3 58.817214 0.919638 6.700000
15631 3 59.233930 0.213606 6.700000
15632 3 60.026468 3.061345 6.700000
15633 3 60.443183 2.355313 6.700000
15634 3 61.235721 5.203051 6.700000
15635 3 61.652436 4.497019 6.700000
15636 3 62.444974 7.344758 6.700000
15637 3 62.861689 6.638725 6.700000
15638 3 63.654227 9.486464 6.700000
15639 3 64.070942 8.780432 6.700000
15640 3 64.863480 11.628171 6.700000
15641 3 65.280195 10.922138 6.700000
15642 3 66.072733 13.769877 6.700000
15643 3 66.489449 13.063845 6.700000
15644 3 67.281987 15.911584 6.700000
15645 3 67.698702 15.205551 6.700000
15646 3 68.491240 18.053290 6.700000
15647 3 68.907955 17.347258 6.700000
15648 3 69.700493 20.194997 6.700000
15649 3 70.117208 19.488964 6.700000
15650 3 70.909746 22.336703 6.700000
15651 3 71.326461 21.630671 6.700000
15652 3 72.118999 24.478410 6.700000
15653 3 72.535715 23.772377 6.700000
15654 3 28.626777 -56.882828 6.700000
15655 3 29.043492 -57.588860 6.700000
15656 3 29.836030 -54.741121 6.700000
15657 3 30.252745 -55.447154 6.700000
15658 3 31.045283 -52.599415 6.700000
15659 3 31.461998 -53.305447 6.700000
15660 3 32.254536 -50.457708 6.700000
15661 3 32.671252 -51.163741 6.700000
15662 3 33.463790 -48.316002 6.700000
15663 3 33.880505 -49.022034 6.700000
15664 3 34.673043 -46.174295 6.700000
15665 3 35.089758 -46.880328 6.700000
15666 3 35.882296 -44.032589 6.700000
15667 3 36.299011 -44.738621 6.700000
15668 3 37.091549 -41.890882 6.700000
15669 3 37.508264 -42.596915 6.700000
15670 3 38.300802 -39.749176 6.700000
15671 3 38.717518 -40.455208 6.700000
15672 3 39.510056 -37.607469 6.700000
15673 3 39.926771 -38.313502 6.700000
15674 3 40.719309 -35.465763 6.700000
15675 3 41.136024 -36.171795 6.700000
15676 3 41.928562 -33.324056 6.700000
15677 3 42.345277 -34.030089 6.700000
15678 3 43.137815 -31.182350 6.700000
15679 3 43.554530 -31.888382 6.700000
15680 3 44.347068 -29.040643 6.700000
15681 3 44.763784 -29.746676 6.700000
15682 3 45.556322 -26.898937 6.700000
15683 3 45.973037 -27.604969 6.700000
15684 3 46.765575 -24.757230 6.700000
15685 3 47.182290 -25.463263 6.700000
15686 3 47.974828 -22.615524 6.700000
15687 3 48.391543 -23.321556 6.700000
15688 3 49.184081 -20.473817 6.700000
15689 3 49.600796 -21.179850 6.700000
15690 3 50.393334 -18.332111 6.700000
15691 3 50.810050 -19.038143 6.700000
15692 3 51.602588 -16.190404 6.700000
15693 3 52.019303 -16.896437 6.700000
15694 3 52.811841 -14.048698 6.700000
15695 3 53.228556 -14.754730 6.700000
15696 3 54.021094 -11.906991 6.700000
15697 3 54.437809 -12.613024 6.700000
15698 3 55.230347 -9.765285 6.700000
15699 3 55.647062 -10.471317 6.700000
15700 3 56.439600 -7.623578 6.700000
15701 3 56.856316 -8.329611 6.700000
15702 3 57.648854 -5.481872 6.700000
15703 3 58.065569 -6.187904 6.700000
15704 3 58.858107 -3.340165 6.700000
15705 3 59.274822 -4.046198 6.700000
15706 3 60.067360 -1.198459 6.700000
15707 3 60.484075 -1.904491 6.700000
15708 3 61.276613 0.943248 6.700000
15709 3 61.693328 0.237215 6.700000
15710 3 62.485866 3.084954 6.700000
15711 3 62.902582 2.378922 6.700000
15712 3 63.695120 5.226661 6.700000
15713 3 64.111835 4.520628 6.700000
15714 3 64.904373 7.368367 6.700000
15715 3 65.321088 6.662335 6.700000
15716 3 66.113626 9.510074 6.700000
15717 3 66.530341 8.804041 6.700000
15718 3 67.322879 11.651780 6.700000
15719 3 67.739594 10.945748 6.700000
15720 3 68.532132 13.793487 6.700000
15721 3 68.948848 13.087454 6.700000
15722 3 69.741386 15.935193 6.700000
15723 3 70.158101 15.229161 6.700000
15724 3 70.950639 18.076900 6.700000
15725 3 71.367354 17.370867 6.700000
15726 3 72.159892 20.218606 6.700000
15727 3 72.576607 19.512574 6.700000
15728 3 73.369145 22.360313 6.700000
15729 3 31.086176 -56.859218 6.700000
15730 3 31.502891 -57.565251 6.700000
15731 3 32.295429 -54.717512 6.700000
15732 3 32.712144 -55.423544 6.700000
15733 3 33.504682 -52.575805 6.700000
15734 3 33.921397 -53.281838 6.700000
15735 3 34.713935 -50.434099 6.700000
15736 3 35.130650 -51.140131 6.700000
15737 3 35.923188 -48.292392 6.700000
15738 3 36.339904 -48.998425 6.700000
15739 3 37.132442 -46.150686 6.700000
15740 3 37.549157 -46.856718 6.700000
15741 3 38.341695 -44.008979 6.700000
15742 3 38.758410 -44.715012 6.700000
15743 3 39.550948 -41.867273 6.700000
15744 3 39.967663 -42.573305 6.700000
15745 3 40.760201 -39.725566 6.700000
15746 3 41.176916 -40.431599 6.700000
15747 3 41.969454 -37.583860 6.700000
15748 3 42.386170 -38.289892 6.700000
15749 3 43.178708 -35.442153 6.700000
15750 3 43.595423 -36.148186 6.700000
15751 3 44.387961 -33.300447 6.700000
15752 3 44.804676 -34.006479 6.700000
15753 3 45.597214 -31.158740 6.700000
15754 3 46.013929 -31.864773 6.700000
15755 3 46.806467 -29.017034 6.700000
15756 3 47.223182 -29.723066 6.700000
15757 3 48.015720 -26.875327 6.700000
15758 3 48.432436 -27.581360 6.700000
15759 3 49.224974 -24.733621 6.700000
15760 3 49.641689 -25.439653 6.700000
15761 3 50.434227 -22.591914 6.700000
15762 3 50.850942 -23.297947 6.700000
15763 3 51.643480 -20.450208 6.700000
15764 3 52.060195 -21.156240 6.700000
15765 3 52.852733 -18.308502 6.700000
15766 3 53.269448 -19.014534 6.700000
15767 3 54.061986 -16.166795 6.700000
15768 3 54.478702 -16.872827 6.700000
15769 3 55.271240 -14.025089 6.700000
15770 3 55.687955 -14.731121 6.700000
15771 3 56.480493 -11.883382 6.700000
15772 3 56.897208 -12.589414 6.700000
15773 3 57.689746 -9.741676 6.700000
15774 3 58.106461 -10.447708 6.700000
15775 3 58.898999 -7.599969 6.700000
15776 3 59.315714 -8.306001 6.700000
15777 3 60.108252 -5.458263 6.700000
15778 3 60.524968 -6.164295 6.700000
15779 3 61.317506 -3.316556 6.700000
15780 3 61.734221 -4.022588 6.700000
15781 3 62.526759 -1.174850 6.700000
15782 3 62.943474 -1.880882 6.700000
15783 3 63.736012 0.966857 6.700000
15784 3 64.152727 0.260825 6.700000
15785 3 64.945265 3.108563 6.700000
15786 3 65.361980 2.402531 6.700000
15787 3 66.154518 5.250270 6.700000
15788 3 66.571234 4.544238 6.700000
15789 3 67.363772 7.391976 6.700000
15790 3 67.780487 6.685944 6.700000
15791 3 68.573025 9.533683 6.700000
15792 3 68.989740 8.827651 6.700000
15793 3 69.782278 11.675389 6.700000
15794 3 70.198993 10.969357 6.700000
15795 3 70.991531 13.817096 6.700000
15796 3 71.408246 13.111063 6.700000
15797 3 72.200784 15.958802 6.700000
15798 3 72.617500 15.252770 6.700000
15799 3 73.410038 18.100509 6.700000
15800 3 73.826753 17.394476 6.700000
15801 3 33.545574 -56.835609 6.700000
15802 3 33.962290 -57.541642 6.700000
15803 3 34.754828 -54.693903 6.700000
15804 3 35.171543 -55.399935 6.700000
15805 3 35.964081 -52.552196 6.700000
15806 3 36.380796 -53.258229 6.700000
15807 3 37.173334 -50.410490 6.700000
15808 3 37.590049 -51.116522 6.700000
15809 3 38.382587 -48.268783 6.700000
15810 3 38.799302 -48.974816 6.700000
15811 3 39.591840 -46.127077 6.700000
15812 3 40.008556 -46.833109 6.700000
15813 3 40.801094 -43.985370 6.700000
15814 3 41.217809 -44.691403 6.700000
15815 3 42.010347 -41.843664 6.700000
15816 3 42.427062 -42.549696 6.700000
15817 3 43.219600 -39.701957 6.700000
15818 3 43.636315 -40.407990 6.700000
15819 3 44.428853 -37.560251 6.700000
15820 3 44.845568 -38.266283 6.700000
15821 3 45.638106 -35.418544 6.700000
15822 3 46.054822 -36.124577 6.700000
15823 3 46.847360 -33.276838 6.700000
15824 3 47.264075 -33.982870 6.700000
15825 3 48.056613 -31.135131 6.700000
15826 3 48.473328 -31.841164 6.700000
15827 3 49.265866 -28.993425 6.700000
15828 3 49.682581 -29.699457 6.700000
15829 3 50.475119 -26.851718 6.700000
15830 3 50.891834 -27.557751 6.700000
15831 3 51.684372 -24.710012 6.700000
15832 3 52.101088 -25.416044 6.700000
15833 3 52.893626 -22.568305 6.700000
15834 3 53.310341 -23.274338 6.700000
15835 3 54.102879 -20.426599 6.700000
15836 3 54.519594 -21.132631 6.700000
15837 3 55.312132 -18.284892 6.700000
15838 3 55.728847 -18.990925 6.700000
15839 3 56.521385 -16.143186 6.700000
15840 3 56.938100 -16.849218 6.700000
15841 3 57.730638 -14.001479 6.700000
15842 3 58.147354 -14.707512 6.700000
15843 3 58.939892 -11.859773 6.700000
15844 3 59.356607 -12.565805 6.700000
15845 3 60.149145 -9.718066 6.700000
15846 3 60.565860 -10.424099 6.700000
15847 3 61.358398 -7.576360 6.700000
15848 3 61.775113 -8.282392 6.700000
15849 3 62.567651 -5.434653 6.700000
15850 3 62.984366 -6.140686 6.700000
15851 3 63.776904 -3.292947 6.700000
15852 3 64.193620 -3.998979 6.700000
15853 3 64.986158 -1.151240 6.700000
15854 3 65.402873 -1.857273 6.700000
15855 3 66.195411 0.990466 6.700000
15856 3 66.612126 0.284434 6.700000
15857 3 67.404664 3.132173 6.700000
15858 3 67.821379 2.426140 6.700000
15859 3 68.613917 5.273879 6.700000
15860 3 69.030632 4.567847 6.700000
15861 3 69.823170 7.415586 6.700000
15862 3 70.239886 6.709553 6.700000
15863 3 71.032424 9.557292 6.700000
15864 3 71.449139 8.851260 6.700000
15865 3 72.241677 11.698999 6.700000
15866 3 72.658392 10.992966 6.700000
15867 3 73.450930 13.840705 6.700000
15868 3 73.867645 13.134673 6.700000
15869 3 74.660183 15.982412 6.700000
15870 3 75.076898 15.276379 6.700000
15871 4 -75.356330 -13.832280 10.050000
15872 4 -74.953246 -14.546182 10.050000
15873 4 -74.106184 -11.714182 10.050000
15874 4 -73.703100 -12.428084 10.050000
15875 4 -72.856039 -9.596085 10.050000
15876 4 -72.452954 -10.309987 10.050000
15877 4 -71.605893 -7.477988 10.050000
15878 4 -71.202809 -8.191890 10.050000
15879 4 -70.355747 -5.359891 10.050000
15880 4 -69.952663 -6.073793 10.050000
15881 4 -69.105602 -3.241793 10.050000
15882 4 -68.702517 -3.955696 10.050000
15883 4 -67.855456 -1.123696 10.050000
15884 4 -67.452372 -1.837598 10.050000
15885 4 -66.605311 0.994401 10.050000
15886 4 -66.202226 0.280499 10.050000
15887 4 -65.355165 3.112498 10.050000
15888 4 -64.952081 2.398596 10.050000
15889 4 -64.105019 5.230596 10.050000
15890 4 -63.701935 4.516693 10.050000
15891 4 -62.854874 7.348693 10.050000
15892 4 -62.451789 6.634791 10.050000
15893 4 -61.604728 9.466790 10.050000
15894 4 -61.201644 8.752888 10.050000
15895 4 -60.354582 11.584887 10.050000
15896 4 -59.951498 10.870985 10.050000
15897 4 -59.104437 13.702984 10.050000
15898 4 -58.701352 12.989082 10.050000
15899 4 -57.854291 15.821082 10.050000
15900 4 -57.451207 15.107180 10.050000
15901 4 -56.604146 17.939179 10.050000
15902 4 -56.201061 17.225277 10.050000
15903 4 -55.354000 20.057276 10.050000
15904 4 -54.950916 19.343374 10.050000
15905 4 -54.103854 22.175373 10.050000
15906 4 -53.700770 21.461471 10.050000
15907 4 -52.853709 24.293471 10.050000
15908 4 -52.450624 23.579568 10.050000
15909 4 -51.603563 26.411568 10.050000
15910 4 -51.200479 25.697666 10.050000
15911 4 -50.353417 28.529665 10.050000
15912 4 -49.950333 27.815763 10.050000
15913 4 -49.103272 30.647762 10.050000
15914 4 -48.700187 29.933860 10.050000
15915 4 -47.853126 32.765860 10.050000
15916 4 -47.450042 32.051957 10.050000
15917 4 -46.602980 34.883957 10.050000
15918 4 -46.199896 34.170055 10.050000
15919 4 -45.352835 37.002054 10.050000
15920 4 -44.949750 36.288152 10.050000
15921 4 -44.102689 39.120151 10.050000
15922 4 -43.699605 38.406249 10.050000
15923 4 -42.852544 41.238249 10.050000
15924 4 -42.449459 40.524346 10.050000
15925 4 -41.602398 43.356346 10.050000
15926 4 -41.199314 42.642444 10.050000
15927 4 -40.352252 45.474443 10.050000
15928 4 -39.949168 44.760541 10.050000
15929 4 -39.102107 47.592540 10.050000
15930 4 -38.699022 46.878638 10.050000
15931 4 -37.851961 49.710637 10.050000
15932 4 -37.448877 48.996735 10.050000
15933 4 -36.601815 51.828735 10.050000
15934 4 -36.198731 51.114833 10.050000
15935 4 -35.351670 53.946832 10.050000
15936 4 -34.948585 53.232930 10.050000
15937 4 -34.101524 56.064929 10.050000
15938 4 -33.698440 55.351027 10.050000
15939 4 -32.851379 58.183026 10.050000
15940 4 -32.448294 57.469124 10.050000
15941 4 -74.147077 -15.973986 10.050000
15942 4 -73.743992 -16.687888 10.050000
15943 4 -72.896931 -13.855889 10.050000
15944 4 -72.493847 -14.569791 10.050000
15945 4 -71.646786 -11.737792 10.050000
15946 4 -71.243701 -12.451694 10.050000
15947 4 -70.396640 -9.619694 10.050000
15948 4 -69.993556 -10.333597 10.050000
15949 4 -69.146494 -7.501597 10.050000
15950 4 -68.743410 -8.215499 10.050000
15951 4 -67.896349 -5.383500 10.050000
15952 4 -67.493264 -6.097402 10.050000
15953 4 -66.646203 -3.265403 10.050000
15954 4 -66.243119 -3.979305 10.050000
15955 4 -65.396057 -1.147305 10.050000
15956 4 -64.992973 -1.861208 10.050000
15957 4 -64.145912 0.970792 10.050000
15958 4 -63.742827 0.256890 10.050000
15959 4 -62.895766 3.088889 10.050000
15960 4 -62.492682 2.374987 10.050000
15961 4 -61.645621 5.206986 10.050000
15962 4 -61.242536 4.493084 10.050000
15963 4 -60.395475 7.325084 10.050000
15964 4 -59.992390 6.611181 10.050000
15965 4 -59.145329 9.443181 10.050000
15966 4 -58.742245 8.729279 10.050000
15967 4 -57.895184 11.561278 10.050000
15968 4 -57.492099 10.847376 10.050000
15969 4 -56.645038 13.679375 10.050000
15970 4 -56.241954 12.965473 10.050000
15971 4 -55.394892 15.797472 10.050000
15972 4 -54.991808 15.083570 10.050000
15973 4 -54.144747 17.915570 10.050000
15974 4 -53.741662 17.201668 10.050000
15975 4 -52.894601 20.033667 10.050000
15976 4 -52.491517 19.319765 10.050000
15977 4 -51.644455 22.151764 10.050000
15978 4 -51.241371 21.437862 10.050000
15979 4 -50.394310 24.269861 10.050000
15980 4 -49.991225 23.555959 10.050000
15981 4 -49.144164 26.387959 10.050000
15982 4 -48.741080 25.674056 10.050000
15983 4 -47.894019 28.506056 10.050000
15984 4 -47.490934 27.792154 10.050000
15985 4 -46.643873 30.624153 10.050000
15986 4 -46.240789 29.910251 10.050000
15987 4 -45.393727 32.742250 10.050000
15988 4 -44.990643 32.028348 10.050000
15989 4 -44.143582 34.860348 10.050000
15990 4 -43.740497 34.146445 10.050000
15991 4 -42.893436 36.978445 10.050000
15992 4 -42.490352 36.264543 10.050000
15993 4 -41.643290 39.096542 10.050000
15994 4 -41.240206 38.382640 10.050000
15995 4 -40.393145 41.214639 10.050000
15996 4 -39.990060 40.500737 10.050000
15997 4 -39.142999 43.332737 10.050000
15998 4 -38.739915 42.618834 10.050000
15999 4 -37.892853 45.450834 10.050000
16000 4 -37.489769 44.736932 10.050000
16001 4 -36.642708 47.568931 10.050000
16002 4 -36.239623 46.855029 10.050000
16003 4 -35.392562 49.687028 10.050000
16004 4 -34.989478 48.973126 10.050000
16005 4 -34.142417 51.805125 10.050000
16006 4 -33.739332 51.091223 10.050000
16007 4 -32.892271 53.923223 10.050000
16008 4 -32.489187 53.209321 10.050000
16009 4 -31.642125 56.041320 10.050000
16010 4 -31.239041 55.327418 10.050000
16011 4 -30.391980 58.159417 10.050000
16012 4 -29.988895 57.445515 10.050000
16013 4 -73.784885 -20.947692 10.050000
16014 4 -72.937824 -18.115693 10.050000
16015 4 -72.534739 -18.829595 10.050000
16016 4 -71.687678 -15.997595 10.050000
16017 4 -71.284594 -16.711497 10.050000
16018 4 -70.437532 -13.879498 10.050000
16019 4 -70.034448 -14.593400 10.050000
16020 4 -69.187387 -11.761401 10.050000
16021 4 -68.784302 -12.475303 10.050000
16022 4 -67.937241 -9.643304 10.050000
16023 4 -67.534157 -10.357206 10.050000
16024 4 -66.687095 -7.525206 10.050000
16025 4 -66.284011 -8.239109 10.050000
16026 4 -65.436950 -5.407109 10.050000
16027 4 -65.033865 -6.121011 10.050000
16028 4 -64.186804 -3.289012 10.050000
16029 4 -63.783720 -4.002914 10.050000
16030 4 -62.936659 -1.170915 10.050000
16031 4 -62.533574 -1.884817 10.050000
16032 4 -61.686513 0.947183 10.050000
16033 4 -61.283429 0.233280 10.050000
16034 4 -60.436367 3.065280 10.050000
16035 4 -60.033283 2.351378 10.050000
16036 4 -59.186222 5.183377 10.050000
16037 4 -58.783137 4.469475 10.050000
16038 4 -57.936076 7.301474 10.050000
16039 4 -57.532992 6.587572 10.050000
16040 4 -56.685930 9.419572 10.050000
16041 4 -56.282846 8.705669 10.050000
16042 4 -55.435785 11.537669 10.050000
16043 4 -55.032700 10.823767 10.050000
16044 4 -54.185639 13.655766 10.050000
16045 4 -53.782555 12.941864 10.050000
16046 4 -52.935494 15.773863 10.050000
16047 4 -52.532409 15.059961 10.050000
16048 4 -51.685348 17.891960 10.050000
16049 4 -51.282263 17.178058 10.050000
16050 4 -50.435202 20.010058 10.050000
16051 4 -50.032118 19.296156 10.050000
16052 4 -49.185057 22.128155 10.050000
16053 4 -48.781972 21.414253 10.050000
16054 4 -47.934911 24.246252 10.050000
16055 4 -47.531827 23.532350 10.050000
16056 4 -46.684765 26.364349 10.050000
16057 4 -46.281681 25.650447 10.050000
16058 4 -45.434620 28.482447 10.050000
16059 4 -45.031535 27.768544 10.050000
16060 4 -44.184474 30.600544 10.050000
16061 4 -43.781390 29.886642 10.050000
16062 4 -42.934328 32.718641 10.050000
16063 4 -42.531244 32.004739 10.050000
16064 4 -41.684183 34.836738 10.050000
16065 4 -41.281098 34.122836 10.050000
16066 4 -40.434037 36.954836 10.050000
16067 4 -40.030953 36.240933 10.050000
16068 4 -39.183892 39.072933 10.050000
16069 4 -38.780807 38.359031 10.050000
16070 4 -37.933746 41.191030 10.050000
16071 4 -37.530662 40.477128 10.050000
16072 4 -36.683600 43.309127 10.050000
16073 4 -36.280516 42.595225 10.050000
16074 4 -35.433455 45.427224 10.050000
16075 4 -35.030370 44.713322 10.050000
16076 4 -34.183309 47.545322 10.050000
16077 4 -33.780225 46.831420 10.050000
16078 4 -32.933163 49.663419 10.050000
16079 4 -32.530079 48.949517 10.050000
16080 4 -31.683018 51.781516 10.050000
16081 4 -31.279933 51.067614 10.050000
16082 4 -30.432872 53.899613 10.050000
16083 4 -30.029788 53.185711 10.050000
16084 4 -29.182726 56.017711 10.050000
16085 4 -28.779642 55.303809 10.050000
16086 4 -27.932581 58.135808 10.050000
16087 4 -27.529496 57.421906 10.050000
16088 4 -72.978716 -22.375496 10.050000
16089 4 -72.575632 -23.089398 10.050000
16090 4 -71.728570 -20.257399 10.050000
16091 4 -71.325486 -20.971301 10.050000
16092 4 -70.478425 -18.139302 10.050000
16093 4 -70.075340 -18.853204 10.050000
16094 4 -69.228279 -16.021205 10.050000
16095 4 -68.825195 -16.735107 10.050000
16096 4 -67.978134 -13.903107 10.050000
16097 4 -67.575049 -14.617010 10.050000
16098 4 -66.727988 -11.785010 10.050000
16099 4 -66.324904 -12.498912 10.050000
16100 4 -65.477842 -9.666913 10.050000
16101 4 -65.074758 -10.380815 10.050000
16102 4 -64.227697 -7.548816 10.050000
16103 4 -63.824612 -8.262718 10.050000
16104 4 -62.977551 -5.430718 10.050000
16105 4 -62.574467 -6.144621 10.050000
16106 4 -61.727405 -3.312621 10.050000
16107 4 -61.324321 -4.026523 10.050000
16108 4 -60.477260 -1.194524 10.050000
16109 4 -60.074175 -1.908426 10.050000
16110 4 -59.227114 0.923573 10.050000
16111 4 -58.824030 0.209671 10.050000
16112 4 -57.976968 3.041671 10.050000
16113 4 -57.573884 2.327768 10.050000
16114 4 -56.726823 5.159768 10.050000
16115 4 -56.323738 4.445866 10.050000
16116 4 -55.476677 7.277865 10.050000
16117 4 -55.073593 6.563963 10.050000
16118 4 -54.226532 9.395962 10.050000
16119 4 -53.823447 8.682060 10.050000
16120 4 -52.976386 11.514059 10.050000
16121 4 -52.573302 10.800157 10.050000
16122 4 -51.726240 13.632157 10.050000
16123 4 -51.323156 12.918255 10.050000
16124 4 -50.476095 15.750254 10.050000
16125 4 -50.073010 15.036352 10.050000
16126 4 -49.225949 17.868351 10.050000
16127 4 -48.822865 17.154449 10.050000
16128 4 -47.975803 19.986448 10.050000
16129 4 -47.572719 19.272546 10.050000
16130 4 -46.725658 22.104546 10.050000
16131 4 -46.322573 21.390643 10.050000
16132 4 -45.475512 24.222643 10.050000
16133 4 -45.072428 23.508741 10.050000
16134 4 -44.225367 26.340740 10.050000
16135 4 -43.822282 25.626838 10.050000
16136 4 -42.975221 28.458837 10.050000
16137 4 -42.572136 27.744935 10.050000
16138 4 -41.725075 30.576935 10.050000
16139 4 -41.321991 29.863032 10.050000
16140 4 -40.474930 32.695032 10.050000
16141 4 -40.071845 31.981130 10.050000
16142 4 -39.224784 34.813129 10.050000
16143 4 -38.821700 34.099227 10.050000
16144 4 -37.974638 36.931226 10.050000
16145 4 -37.571554 36.217324 10.050000
16146 4 -36.724493 39.049324 10.050000
16147 4 -36.321408 38.335421 10.050000
16148 4 -35.474347 41.167421 10.050000
16149 4 -35.071263 40.453519 10.050000
16150 4 -34.224201 43.285518 10.050000
16151 4 -33.821117 42.571616 10.050000
16152 4 -32.974056 45.403615 10.050000
16153 4 -32.570971 44.689713 10.050000
16154 4 -31.723910 47.521712 10.050000
16155 4 -31.320826 46.807810 10.050000
16156 4 -30.473765 49.639810 10.050000
16157 4 -30.070680 48.925908 10.050000
16158 4 -29.223619 51.757907 10.050000
16159 4 -28.820535 51.044005 10.050000
16160 4 -27.973473 53.876004 10.050000
16161 4 -27.570389 53.162102 10.050000
16162 4 -26.723328 55.994101 10.050000
16163 4 -26.320243 55.280199 10.050000
16164 4 -25.473182 58.112199 10.050000
16165 4 -25.070098 57.398296 10.050000
16166 4 -71.769463 -24.517203 10.050000
16167 4 -71.366378 -25.231105 10.050000
16168 4 -70.519317 -22.399106 10.050000
16169 4 -70.116233 -23.113008 10.050000
16170 4 -69.269172 -20.281008 10.050000
16171 4 -68.866087 -20.994910 10.050000
16172 4 -68.019026 -18.162911 10.050000
16173 4 -67.615942 -18.876813 10.050000
16174 4 -66.768880 -16.044814 10.050000
16175 4 -66.365796 -16.758716 10.050000
16176 4 -65.518735 -13.926717 10.050000
16177 4 -65.115650 -14.640619 10.050000
16178 4 -64.268589 -11.808619 10.050000
16179 4 -63.865505 -12.522522 10.050000
16180 4 -63.018443 -9.690522 10.050000
16181 4 -62.615359 -10.404424 10.050000
16182 4 -61.768298 -7.572425 10.050000
16183 4 -61.365213 -8.286327 10.050000
16184 4 -60.518152 -5.454328 10.050000
16185 4 -60.115068 -6.168230 10.050000
16186 4 -59.268007 -3.336230 10.050000
16187 4 -58.864922 -4.050133 10.050000
16188 4 -58.017861 -1.218133 10.050000
16189 4 -57.614777 -1.932035 10.050000
16190 4 -56.767715 0.899964 10.050000
16191 4 -56.364631 0.186062 10.050000
16192 4 -55.517570 3.018061 10.050000
16193 4 -55.114485 2.304159 10.050000
16194 4 -54.267424 5.136159 10.050000
16195 4 -53.864340 4.422256 10.050000
16196 4 -53.017278 7.254256 10.050000
16197 4 -52.614194 6.540354 10.050000
16198 4 -51.767133 9.372353 10.050000
16199 4 -51.364048 8.658451 10.050000
16200 4 -50.516987 11.490450 10.050000
16201 4 -50.113903 10.776548 10.050000
16202 4 -49.266841 13.608547 10.050000
16203 4 -48.863757 12.894645 10.050000
16204 4 -48.016696 15.726645 10.050000
16205 4 -47.613611 15.012743 10.050000
16206 4 -46.766550 17.844742 10.050000
16207 4 -46.363466 17.130840 10.050000
16208 4 -45.516405 19.962839 10.050000
16209 4 -45.113320 19.248937 10.050000
16210 4 -44.266259 22.080936 10.050000
16211 4 -43.863175 21.367034 10.050000
16212 4 -43.016113 24.199034 10.050000
16213 4 -42.613029 23.485131 10.050000
16214 4 -41.765968 26.317131 10.050000
16215 4 -41.362883 25.603229 10.050000
16216 4 -40.515822 28.435228 10.050000
16217 4 -40.112738 27.721326 10.050000
16218 4 -39.265676 30.553325 10.050000
16219 4 -38.862592 29.839423 10.050000
16220 4 -38.015531 32.671423 10.050000
16221 4 -37.612446 31.957520 10.050000
16222 4 -36.765385 34.789520 10.050000
16223 4 -36.362301 34.075618 10.050000
16224 4 -35.515240 36.907617 10.050000
16225 4 -35.112155 36.193715 10.050000
16226 4 -34.265094 39.025714 10.050000
16227 4 -33.862009 38.311812 10.050000
16228 4 -33.014948 41.143812 10.050000
16229 4 -32.611864 40.429909 10.050000
16230 4 -31.764803 43.261909 10.050000
16231 4 -31.361718 42.548007 10.050000
16232 4 -30.514657 45.380006 10.050000
16233 4 -30.111573 44.666104 10.050000
16234 4 -29.264511 47.498103 10.050000
16235 4 -28.861427 46.784201 10.050000
16236 4 -28.014366 49.616200 10.050000
16237 4 -27.611281 48.902298 10.050000
16238 4 -26.764220 51.734298 10.050000
16239 4 -26.361136 51.020396 10.050000
16240 4 -25.514074 53.852395 10.050000
16241 4 -25.110990 53.138493 10.050000
16242 4 -24.263929 55.970492 10.050000
16243 4 -23.860844 55.256590 10.050000
16244 4 -23.013783 58.088589 10.050000
16245 4 -22.610699 57.374687 10.050000
16246 4 -70.560210 -26.658909 10.050000
16247 4 -70.157125 -27.372811 10.050000
16248 4 -69.310064 -24.540812 10.050000
16249 4 -68.906980 -25.254714 10.050000
16250 4 -68.059918 -22.422715 10.050000
16251 4 -67.656834 -23.136617 10.050000
16252 4 -66.809773 -20.304618 10.050000
16253 4 -66.406688 -21.018520 10.050000
16254 4 -65.559627 -18.186520 10.050000
16255 4 -65.156543 -18.900422 10.050000
16256 4 -64.309482 -16.068423 10.050000
16257 4 -63.906397 -16.782325 10.050000
16258 4 -63.059336 -13.950326 10.050000
16259 4 -62.656251 -14.664228 10.050000
16260 4 -61.809190 -11.832229 10.050000
16261 4 -61.406106 -12.546131 10.050000
16262 4 -60.559045 -9.714131 10.050000
16263 4 -60.155960 -10.428034 10.050000
16264 4 -59.308899 -7.596034 10.050000
16265 4 -58.905815 -8.309936 10.050000
16266 4 -58.058753 -5.477937 10.050000
16267 4 -57.655669 -6.191839 10.050000
16268 4 -56.808608 -3.359840 10.050000
16269 4 -56.405523 -4.073742 10.050000
16270 4 -55.558462 -1.241742 10.050000
16271 4 -55.155378 -1.955645 10.050000
16272 4 -54.308316 0.876355 10.050000
16273 4 -53.905232 0.162453 10.050000
16274 4 -53.058171 2.994452 10.050000
16275 4 -52.655086 2.280550 10.050000
16276 4 -51.808025 5.112549 10.050000
16277 4 -51.404941 4.398647 10.050000
16278 4 -50.557880 7.230646 10.050000
16279 4 -50.154795 6.516744 10.050000
16280 4 -49.307734 9.348744 10.050000
16281 4 -48.904650 8.634842 10.050000
16282 4 -48.057588 11.466841 10.050000
16283 4 -47.654504 10.752939 10.050000
16284 4 -46.807443 13.584938 10.050000
16285 4 -46.404358 12.871036 10.050000
16286 4 -45.557297 15.703035 10.050000
16287 4 -45.154213 14.989133 10.050000
16288 4 -44.307151 17.821133 10.050000
16289 4 -43.904067 17.107230 10.050000
16290 4 -43.057006 19.939230 10.050000
16291 4 -42.653921 19.225328 10.050000
16292 4 -41.806860 22.057327 10.050000
16293 4 -41.403776 21.343425 10.050000
16294 4 -40.556714 24.175424 10.050000
16295 4 -40.153630 23.461522 10.050000
16296 4 -39.306569 26.293522 10.050000
16297 4 -38.903484 25.579619 10.050000
16298 4 -38.056423 28.411619 10.050000
16299 4 -37.653339 27.697717 10.050000
16300 4 -36.806278 30.529716 10.050000
16301 4 -36.403193 29.815814 10.050000
16302 4 -35.556132 32.647813 10.050000
16303 4 -35.153048 31.933911 10.050000
16304 4 -34.305986 34.765911 10.050000
16305 4 -33.902902 34.052008 10.050000
16306 4 -33.055841 36.884008 10.050000
16307 4 -32.652756 36.170106 10.050000
16308 4 -31.805695 39.002105 10.050000
16309 4 -31.402611 38.288203 10.050000
16310 4 -30.555549 41.120202 10.050000
16311 4 -30.152465 40.406300 10.050000
16312 4 -29.305404 43.238299 10.050000
16313 4 -28.902319 42.524397 10.050000
16314 4 -28.055258 45.356397 10.050000
16315 4 -27.652174 44.642495 10.050000
16316 4 -26.805113 47.474494 10.050000
16317 4 -26.402028 46.760592 10.050000
16318 4 -25.554967 49.592591 10.050000
16319 4 -25.151882 48.878689 10.050000
16320 4 -24.304821 51.710688 10.050000
16321 4 -23.901737 50.996786 10.050000
16322 4 -23.054676 53.828786 10.050000
16323 4 -22.651591 53.114883 10.050000
16324 4 -21.804530 55.946883 10.050000
16325 4 -21.401446 55.232981 10.050000
16326 4 -20.554384 58.064980 10.050000
16327 4 -20.151300 57.351078 10.050000
16328 4 -69.350956 -28.800616 10.050000
16329 4 -68.947872 -29.514518 10.050000
16330 4 -68.100811 -26.682519 10.050000
16331 4 -67.697726 -27.396421 10.050000
16332 4 -66.850665 -24.564421 10.050000
16333 4 -66.447581 -25.278323 10.050000
16334 4 -65.600520 -22.446324 10.050000
16335 4 -65.197435 -23.160226 10.050000
16336 4 -64.350374 -20.328227 10.050000
16337 4 -63.947290 -21.042129 10.050000
16338 4 -63.100228 -18.210130 10.050000
16339 4 -62.697144 -18.924032 10.050000
16340 4 -61.850083 -16.092032 10.050000
16341 4 -61.446998 -16.805935 10.050000
16342 4 -60.599937 -13.973935 10.050000
16343 4 -60.196853 -14.687837 10.050000
16344 4 -59.349791 -11.855838 10.050000
16345 4 -58.946707 -12.569740 10.050000
16346 4 -58.099646 -9.737741 10.050000
16347 4 -57.696561 -10.451643 10.050000
16348 4 -56.849500 -7.619643 10.050000
16349 4 -56.446416 -8.333546 10.050000
16350 4 -55.599355 -5.501546 10.050000
16351 4 -55.196270 -6.215448 10.050000
16352 4 -54.349209 -3.383449 10.050000
16353 4 -53.946124 -4.097351 10.050000
16354 4 -53.099063 -1.265352 10.050000
16355 4 -52.695979 -1.979254 10.050000
16356 4 -51.848918 0.852746 10.050000
16357 4 -51.445833 0.138843 10.050000
16358 4 -50.598772 2.970843 10.050000
16359 4 -50.195688 2.256941 10.050000
16360 4 -49.348626 5.088940 10.050000
16361 4 -48.945542 4.375038 10.050000
16362 4 -48.098481 7.207037 10.050000
16363 4 -47.695396 6.493135 10.050000
16364 4 -46.848335 9.325134 10.050000
16365 4 -46.445251 8.611232 10.050000
16366 4 -45.598189 11.443232 10.050000
16367 4 -45.195105 10.729330 10.050000
16368 4 -44.348044 13.561329 10.050000
16369 4 -43.944959 12.847427 10.050000
16370 4 -43.097898 15.679426 10.050000
16371 4 -42.694814 14.965524 10.050000
16372 4 -41.847753 17.797523 10.050000
16373 4 -41.444668 17.083621 10.050000
16374 4 -40.597607 19.915621 10.050000
16375 4 -40.194523 19.201718 10.050000
16376 4 -39.347461 22.033718 10.050000
16377 4 -38.944377 21.319816 10.050000
16378 4 -38.097316 24.151815 10.050000
16379 4 -37.694231 23.437913 10.050000
16380 4 -36.847170 26.269912 10.050000
16381 4 -36.444086 25.556010 10.050000
16382 4 -35.597024 28.388010 10.050000
16383 4 -35.193940 27.674107 10.050000
16384 4 -34.346879 30.506107 10.050000
16385 4 -33.943794 29.792205 10.050000
16386 4 -33.096733 32.624204 10.050000
16387 4 -32.693649 31.910302 10.050000
16388 4 -31.846587 34.742301 10.050000
16389 4 -31.443503 34.028399 10.050000
16390 4 -30.596442 36.860399 10.050000
16391 4 -30.193357 36.146496 10.050000
16392 4 -29.346296 38.978496 10.050000
16393 4 -28.943212 38.264594 10.050000
16394 4 -28.096151 41.096593 10.050000
16395 4 -27.693066 40.382691 10.050000
16396 4 -26.846005 43.214690 10.050000
16397 4 -26.442921 42.500788 10.050000
16398 4 -25.595859 45.332787 10.050000
16399 4 -25.192775 44.618885 10.050000
16400 4 -24.345714 47.450885 10.050000
16401 4 -23.942629 46.736983 10.050000
16402 4 -23.095568 49.568982 10.050000
16403 4 -22.692484 48.855080 10.050000
16404 4 -21.845422 51.687079 10.050000
16405 4 -21.442338 50.973177 10.050000
16406 4 -20.595277 53.805176 10.050000
16407 4 -20.192192 53.091274 10.050000
16408 4 -19.345131 55.923274 10.050000
16409 4 -18.942047 55.209371 10.050000
16410 4 -18.094986 58.041371 10.050000
16411 4 -17.691901 57.327469 10.050000
16412 4 -69.391849 -33.060419 10.050000
16413 4 -68.988765 -33.774322 10.050000
16414 4 -68.141703 -30.942322 10.050000
16415 4 -67.738619 -31.656224 10.050000
16416 4 -66.891558 -28.824225 10.050000
16417 4 -66.488473 -29.538127 10.050000
16418 4 -65.641412 -26.706128 10.050000
16419 4 -65.238328 -27.420030 10.050000
16420 4 -64.391266 -24.588031 10.050000
16421 4 -63.988182 -25.301933 10.050000
16422 4 -63.141121 -22.469933 10.050000
16423 4 -62.738036 -23.183835 10.050000
16424 4 -61.890975 -20.351836 10.050000
16425 4 -61.487891 -21.065738 10.050000
16426 4 -60.640829 -18.233739 10.050000
16427 4 -60.237745 -18.947641 10.050000
16428 4 -59.390684 -16.115642 10.050000
16429 4 -58.987599 -16.829544 10.050000
16430 4 -58.140538 -13.997544 10.050000
16431 4 -57.737454 -14.711447 10.050000
16432 4 -56.890393 -11.879447 10.050000
16433 4 -56.487308 -12.593349 10.050000
16434 4 -55.640247 -9.761350 10.050000
16435 4 -55.237163 -10.475252 10.050000
16436 4 -54.390101 -7.643253 10.050000
16437 4 -53.987017 -8.357155 10.050000
16438 4 -53.139956 -5.525155 10.050000
16439 4 -52.736871 -6.239058 10.050000
16440 4 -51.889810 -3.407058 10.050000
16441 4 -51.486726 -4.120960 10.050000
16442 4 -50.639664 -1.288961 10.050000
16443 4 -50.236580 -2.002863 10.050000
16444 4 -49.389519 0.829136 10.050000
16445 4 -48.986434 0.115234 10.050000
16446 4 -48.139373 2.947233 10.050000
16447 4 -47.736289 2.233331 10.050000
16448 4 -46.889228 5.065331 10.050000
16449 4 -46.486143 4.351429 10.050000
16450 4 -45.639082 7.183428 10.050000
16451 4 -45.235997 6.469526 10.050000
16452 4 -44.388936 9.301525 10.050000
16453 4 -43.985852 8.587623 10.050000
16454 4 -43.138791 11.419622 10.050000
16455 4 -42.735706 10.705720 10.050000
16456 4 -41.888645 13.537720 10.050000
16457 4 -41.485561 12.823818 10.050000
16458 4 -40.638499 15.655817 10.050000
16459 4 -40.235415 14.941915 10.050000
16460 4 -39.388354 17.773914 10.050000
16461 4 -38.985269 17.060012 10.050000
16462 4 -38.138208 19.892011 10.050000
16463 4 -37.735124 19.178109 10.050000
16464 4 -36.888062 22.010109 10.050000
16465 4 -36.484978 21.296206 10.050000
16466 4 -35.637917 24.128206 10.050000
16467 4 -35.234832 23.414304 10.050000
16468 4 -34.387771 26.246303 10.050000
16469 4 -33.984687 25.532401 10.050000
16470 4 -33.137626 28.364400 10.050000
16471 4 -32.734541 27.650498 10.050000
16472 4 -31.887480 30.482498 10.050000
16473 4 -31.484396 29.768595 10.050000
16474 4 -30.637334 32.600595 10.050000
16475 4 -30.234250 31.886693 10.050000
16476 4 -29.387189 34.718692 10.050000
16477 4 -28.984104 34.004790 10.050000
16478 4 -28.137043 36.836789 10.050000
16479 4 -27.733959 36.122887 10.050000
16480 4 -26.886897 38.954886 10.050000
16481 4 -26.483813 38.240984 10.050000
16482 4 -25.636752 41.072984 10.050000
16483 4 -25.233667 40.359082 10.050000
16484 4 -24.386606 43.191081 10.050000
16485 4 -23.983522 42.477179 10.050000
16486 4 -23.136460 45.309178 10.050000
16487 4 -22.733376 44.595276 10.050000
16488 4 -21.886315 47.427275 10.050000
16489 4 -21.483230 46.713373 10.050000
16490 4 -20.636169 49.545373 10.050000
16491 4 -20.233085 48.831471 10.050000
16492 4 -19.386024 51.663470 10.050000
16493 4 -18.982939 50.949568 10.050000
16494 4 -18.135878 53.781567 10.050000
16495 4 -17.732794 53.067665 10.050000
16496 4 -16.885732 55.899664 10.050000
16497 4 -16.482648 55.185762 10.050000
16498 4 -15.635587 58.017762 10.050000
16499 4 -15.232502 57.303859 10.050000
16500 4 -68.182596 -35.202126 10.050000
16501 4 -67.779511 -35.916028 10.050000
16502 4 -66.932450 -33.084029 10.050000
16503 4 -66.529366 -33.797931 10.050000
16504 4 -65.682304 -30.965932 10.050000
16505 4 -65.279220 -31.679834 10.050000
16506 4 -64.432159 -28.847834 10.050000
16507 4 -64.029074 -29.561736 10.050000
16508 4 -63.182013 -26.729737 10.050000
16509 4 -62.778929 -27.443639 10.050000
16510 4 -61.931868 -24.611640 10.050000
16511 4 -61.528783 -25.325542 10.050000
16512 4 -60.681722 -22.493543 10.050000
16513 4 -60.278638 -23.207445 10.050000
16514 4 -59.431576 -20.375445 10.050000
16515 4 -59.028492 -21.089348 10.050000
16516 4 -58.181431 -18.257348 10.050000
16517 4 -57.778346 -18.971250 10.050000
16518 4 -56.931285 -16.139251 10.050000
16519 4 -56.528201 -16.853153 10.050000
16520 4 -55.681139 -14.021154 10.050000
16521 4 -55.278055 -14.735056 10.050000
16522 4 -54.430994 -11.903056 10.050000
16523 4 -54.027909 -12.616959 10.050000
16524 4 -53.180848 -9.784959 10.050000
16525 4 -52.777764 -10.498861 10.050000
16526 4 -51.930702 -7.666862 10.050000
16527 4 -51.527618 -8.380764 10.050000
16528 4 -50.680557 -5.548765 10.050000
16529 4 -50.277472 -6.262667 10.050000
16530 4 -49.430411 -3.430667 10.050000
16531 4 -49.027327 -4.144570 10.050000
16532 4 -48.180266 -1.312570 10.050000
16533 4 -47.777181 -2.026472 10.050000
16534 4 -46.930120 0.805527 10.050000
16535 4 -46.527036 0.091625 10.050000
16536 4 -45.679974 2.923624 10.050000
16537 4 -45.276890 2.209722 10.050000
16538 4 -44.429829 5.041721 10.050000
16539 4 -44.026744 4.327819 10.050000
16540 4 -43.179683 7.159819 10.050000
16541 4 -42.776599 6.445917 10.050000
16542 4 -41.929537 9.277916 10.050000
16543 4 -41.526453 8.564014 10.050000
16544 4 -40.679392 11.396013 10.050000
16545 4 -40.276307 10.682111 10.050000
16546 4 -39.429246 13.514110 10.050000
16547 4 -39.026162 12.800208 10.050000
16548 4 -38.179101 15.632208 10.050000
16549 4 -37.776016 14.918305 10.050000
16550 4 -36.928955 17.750305 10.050000
16551 4 -36.525870 17.036403 10.050000
16552 4 -35.678809 19.868402 10.050000
16553 4 -35.275725 19.154500 10.050000
16554 4 -34.428664 21.986499 10.050000
16555 4 -34.025579 21.272597 10.050000
16556 4 -33.178518 24.104597 10.050000
16557 4 -32.775434 23.390694 10.050000
16558 4 -31.928372 26.222694 10.050000
16559 4 -31.525288 25.508792 10.050000
16560 4 -30.678227 28.340791 10.050000
16561 4 -30.275142 27.626889 10.050000
16562 4 -29.428081 30.458888 10.050000
16563 4 -29.024997 29.744986 10.050000
16564 4 -28.177935 32.576986 10.050000
16565 4 -27.774851 31.863083 10.050000
16566 4 -26.927790 34.695083 10.050000
16567 4 -26.524705 33.981181 10.050000
16568 4 -25.677644 36.813180 10.050000
16569 4 -25.274560 36.099278 10.050000
16570 4 -24.427499 38.931277 10.050000
16571 4 -24.024414 38.217375 10.050000
16572 4 -23.177353 41.049374 10.050000
16573 4 -22.774269 40.335472 10.050000
16574 4 -21.927207 43.167472 10.050000
16575 4 -21.524123 42.453570 10.050000
16576 4 -20.677062 45.285569 10.050000
16577 4 -20.273977 44.571667 10.050000
16578 4 -19.426916 47.403666 10.050000
16579 4 -19.023832 46.689764 10.050000
16580 4 -18.176770 49.521763 10.050000
16581 4 -17.773686 48.807861 10.050000
16582 4 -16.926625 51.639861 10.050000
16583 4 -16.523540 50.925958 10.050000
16584 4 -15.676479 53.757958 10.050000
16585 4 -15.273395 53.044056 10.050000
16586 4 -14.426334 55.876055 10.050000
16587 4 -14.023249 55.162153 10.050000
16588 4 -13.176188 57.994152 10.050000
16589 4 -12.773103 57.280250 10.050000
16590 4 -66.973343 -37.343832 10.050000
16591 4 -66.570258 -38.057735 10.050000
16592 4 -65.723197 -35.225735 10.050000
16593 4 -65.320112 -35.939637 10.050000
16594 4 -64.473051 -33.107638 10.050000
16595 4 -64.069967 -33.821540 10.050000
16596 4 -63.222906 -30.989541 10.050000
16597 4 -62.819821 -31.703443 10.050000
16598 4 -61.972760 -28.871444 10.050000
16599 4 -61.569676 -29.585346 10.050000
16600 4 -60.722614 -26.753346 10.050000
16601 4 -60.319530 -27.467248 10.050000
16602 4 -59.472469 -24.635249 10.050000
16603 4 -59.069384 -25.349151 10.050000
16604 4 -58.222323 -22.517152 10.050000
16605 4 -57.819239 -23.231054 10.050000
16606 4 -56.972177 -20.399055 10.050000
16607 4 -56.569093 -21.112957 10.050000
16608 4 -55.722032 -18.280957 10.050000
16609 4 -55.318947 -18.994860 10.050000
16610 4 -54.471886 -16.162860 10.050000
16611 4 -54.068802 -16.876762 10.050000
16612 4 -53.221741 -14.044763 10.050000
16613 4 -52.818656 -14.758665 10.050000
16614 4 -51.971595 -11.926666 10.050000
16615 4 -51.568511 -12.640568 10.050000
16616 4 -50.721449 -9.808568 10.050000
16617 4 -50.318365 -10.522471 10.050000
16618 4 -49.471304 -7.690471 10.050000
16619 4 -49.068219 -8.404373 10.050000
16620 4 -48.221158 -5.572374 10.050000
16621 4 -47.818074 -6.286276 10.050000
16622 4 -46.971012 -3.454277 10.050000
16623 4 -46.567928 -4.168179 10.050000
16624 4 -45.720867 -1.336179 10.050000
16625 4 -45.317782 -2.050082 10.050000
16626 4 -44.470721 0.781918 10.050000
16627 4 -44.067637 0.068016 10.050000
16628 4 -43.220575 2.900015 10.050000
16629 4 -42.817491 2.186113 10.050000
16630 4 -41.970430 5.018112 10.050000
16631 4 -41.567345 4.304210 10.050000
16632 4 -40.720284 7.136209 10.050000
16633 4 -40.317200 6.422307 10.050000
16634 4 -39.470139 9.254307 10.050000
16635 4 -39.067054 8.540405 10.050000
16636 4 -38.219993 11.372404 10.050000
16637 4 -37.816909 10.658502 10.050000
16638 4 -36.969847 13.490501 10.050000
16639 4 -36.566763 12.776599 10.050000
16640 4 -35.719702 15.608598 10.050000
16641 4 -35.316617 14.894696 10.050000
16642 4 -34.469556 17.726696 10.050000
16643 4 -34.066472 17.012793 10.050000
16644 4 -33.219410 19.844793 10.050000
16645 4 -32.816326 19.130891 10.050000
16646 4 -31.969265 21.962890 10.050000
16647 4 -31.566180 21.248988 10.050000
16648 4 -30.719119 24.080987 10.050000
16649 4 -30.316035 23.367085 10.050000
16650 4 -29.468974 26.199085 10.050000
16651 4 -29.065889 25.485182 10.050000
16652 4 -28.218828 28.317182 10.050000
16653 4 -27.815744 27.603280 10.050000
16654 4 -26.968682 30.435279 10.050000
16655 4 -26.565598 29.721377 10.050000
16656 4 -25.718537 32.553376 10.050000
16657 4 -25.315452 31.839474 10.050000
16658 4 -24.468391 34.671474 10.050000
16659 4 -24.065307 33.957571 10.050000
16660 4 -23.218245 36.789571 10.050000
16661 4 -22.815161 36.075669 10.050000
16662 4 -21.968100 38.907668 10.050000
16663 4 -21.565015 38.193766 10.050000
16664 4 -20.717954 41.025765 10.050000
16665 4 -20.314870 40.311863 10.050000
16666 4 -19.467808 43.143862 10.050000
16667 4 -19.064724 42.429960 10.050000
16668 4 -18.217663 45.261960 10.050000
16669 4 -17.814578 44.548058 10.050000
16670 4 -16.967517 47.380057 10.050000
16671 4 -16.564433 46.666155 10.050000
16672 4 -15.717372 49.498154 10.050000
16673 4 -15.314287 48.784252 10.050000
16674 4 -14.467226 51.616251 10.050000
16675 4 -14.064142 50.902349 10.050000
16676 4 -13.217080 53.734349 10.050000
16677 4 -12.813996 53.020446 10.050000
16678 4 -11.966935 55.852446 10.050000
16679 4 -11.563850 55.138544 10.050000
16680 4 -10.716789 57.970543 10.050000
16681 4 -10.313705 57.256641 10.050000
16682 4 -65.764089 -39.485539 10.050000
16683 4 -65.361005 -40.199441 10.050000
16684 4 -64.513944 -37.367442 10.050000
16685 4 -64.110859 -38.081344 10.050000
16686 4 -63.263798 -35.249345 10.050000
16687 4 -62.860714 -35.963247 10.050000
16688 4 -62.013652 -33.131247 10.050000
16689 4 -61.610568 -33.845149 10.050000
16690 4 -60.763507 -31.013150 10.050000
16691 4 -60.360422 -31.727052 10.050000
16692 4 -59.513361 -28.895053 10.050000
16693 4 -59.110277 -29.608955 10.050000
16694 4 -58.263216 -26.776956 10.050000
16695 4 -57.860131 -27.490858 10.050000
16696 4 -57.013070 -24.658858 10.050000
16697 4 -56.609985 -25.372760 10.050000
16698 4 -55.762924 -22.540761 10.050000
16699 4 -55.359840 -23.254663 10.050000
16700 4 -54.512779 -20.422664 10.050000
16701 4 -54.109694 -21.136566 10.050000
16702 4 -53.262633 -18.304567 10.050000
16703 4 -52.859549 -19.018469 10.050000
16704 4 -52.012487 -16.186469 10.050000
16705 4 -51.609403 -16.900372 10.050000
16706 4 -50.762342 -14.068372 10.050000
16707 4 -50.359257 -14.782274 10.050000
16708 4 -49.512196 -11.950275 10.050000
16709 4 -49.109112 -12.664177 10.050000
16710 4 -48.262050 -9.832178 10.050000
16711 4 -47.858966 -10.546080 10.050000
16712 4 -47.011905 -7.714080 10.050000
16713 4 -46.608820 -8.427983 10.050000
16714 4 -45.761759 -5.595983 10.050000
16715 4 -45.358675 -6.309885 10.050000
16716 4 -44.511614 -3.477886 10.050000
16717 4 -44.108529 -4.191788 10.050000
16718 4 -43.261468 -1.359789 10.050000
16719 4 -42.858384 -2.073691 10.050000
16720 4 -42.011322 0.758308 10.050000
16721 4 -41.608238 0.044406 10.050000
16722 4 -40.761177 2.876406 10.050000
16723 4 -40.358092 2.162504 10.050000
16724 4 -39.511031 4.994503 10.050000
16725 4 -39.107947 4.280601 10.050000
16726 4 -38.260885 7.112600 10.050000
16727 4 -37.857801 6.398698 10.050000
16728 4 -37.010740 9.230697 10.050000
16729 4 -36.607655 8.516795 10.050000
16730 4 -35.760594 11.348795 10.050000
16731 4 -35.357510 10.634892 10.050000
16732 4 -34.510449 13.466892 10.050000
16733 4 -34.107364 12.752990 10.050000
16734 4 -33.260303 15.584989 10.050000
16735 4 -32.857218 14.871087 10.050000
16736 4 -32.010157 17.703086 10.050000
16737 4 -31.607073 16.989184 10.050000
16738 4 -30.760012 19.821184 10.050000
16739 4 -30.356927 19.107281 10.050000
16740 4 -29.509866 21.939281 10.050000
16741 4 -29.106782 21.225379 10.050000
16742 4 -28.259720 24.057378 10.050000
16743 4 -27.856636 23.343476 10.050000
16744 4 -27.009575 26.175475 10.050000
16745 4 -26.606490 25.461573 10.050000
16746 4 -25.759429 28.293573 10.050000
16747 4 -25.356345 27.579670 10.050000
16748 4 -24.509283 30.411670 10.050000
16749 4 -24.106199 29.697768 10.050000
16750 4 -23.259138 32.529767 10.050000
16751 4 -22.856053 31.815865 10.050000
16752 4 -22.008992 34.647864 10.050000
16753 4 -21.605908 33.933962 10.050000
16754 4 -20.758847 36.765961 10.050000
16755 4 -20.355762 36.052059 10.050000
16756 4 -19.508701 38.884059 10.050000
16757 4 -19.105617 38.170157 10.050000
16758 4 -18.258555 41.002156 10.050000
16759 4 -17.855471 40.288254 10.050000
16760 4 -17.008410 43.120253 10.050000
16761 4 -16.605325 42.406351 10.050000
16762 4 -15.758264 45.238350 10.050000
16763 4 -15.355180 44.524448 10.050000
16764 4 -14.508118 47.356448 10.050000
16765 4 -14.105034 46.642545 10.050000
16766 4 -13.257973 49.474545 10.050000
16767 4 -12.854888 48.760643 10.050000
16768 4 -12.007827 51.592642 10.050000
16769 4 -11.604743 50.878740 10.050000
16770 4 -10.757681 53.710739 10.050000
16771 4 -10.354597 52.996837 10.050000
16772 4 -9.507536 55.828837 10.050000
16773 4 -9.104451 55.114934 10.050000
16774 4 -8.257390 57.946934 10.050000
16775 4 -7.854306 57.233032 10.050000
16776 4 -64.554836 -41.627245 10.050000
16777 4 -64.151752 -42.341148 10.050000
16778 4 -63.304690 -39.509148 10.050000
16779 4 -62.901606 -40.223050 10.050000
16780 4 -62.054545 -37.391051 10.050000
16781 4 -61.651460 -38.104953 10.050000
16782 4 -60.804399 -35.272954 10.050000
16783 4 -60.401315 -35.986856 10.050000
16784 4 -59.554254 -33.154857 10.050000
16785 4 -59.151169 -33.868759 10.050000
16786 4 -58.304108 -31.036759 10.050000
16787 4 -57.901024 -31.750661 10.050000
16788 4 -57.053962 -28.918662 10.050000
16789 4 -56.650878 -29.632564 10.050000
16790 4 -55.803817 -26.800565 10.050000
16791 4 -55.400732 -27.514467 10.050000
16792 4 -54.553671 -24.682468 10.050000
16793 4 -54.150587 -25.396370 10.050000
16794 4 -53.303525 -22.564370 10.050000
16795 4 -52.900441 -23.278273 10.050000
16796 4 -52.053380 -20.446273 10.050000
16797 4 -51.650295 -21.160175 10.050000
16798 4 -50.803234 -18.328176 10.050000
16799 4 -50.400150 -19.042078 10.050000
16800 4 -49.553089 -16.210079 10.050000
16801 4 -49.150004 -16.923981 10.050000
16802 4 -48.302943 -14.091981 10.050000
16803 4 -47.899859 -14.805884 10.050000
16804 4 -47.052797 -11.973884 10.050000
16805 4 -46.649713 -12.687786 10.050000
16806 4 -45.802652 -9.855787 10.050000
16807 4 -45.399567 -10.569689 10.050000
16808 4 -44.552506 -7.737690 10.050000
16809 4 -44.149422 -8.451592 10.050000
16810 4 -43.302360 -5.619592 10.050000
16811 4 -42.899276 -6.333495 10.050000
16812 4 -42.052215 -3.501495 10.050000
16813 4 -41.649130 -4.215397 10.050000
16814 4 -40.802069 -1.383398 10.050000
16815 4 -40.398985 -2.097300 10.050000
16816 4 -39.551923 0.734699 10.050000
16817 4 -39.148839 0.020797 10.050000
16818 4 -38.301778 2.852796 10.050000
16819 4 -37.898693 2.138894 10.050000
16820 4 -37.051632 4.970894 10.050000
16821 4 -36.648548 4.256992 10.050000
16822 4 -35.801487 7.088991 10.050000
16823 4 -35.398402 6.375089 10.050000
16824 4 -34.551341 9.207088 10.050000
16825 4 -34.148257 8.493186 10.050000
16826 4 -33.301195 11.325185 10.050000
16827 4 -32.898111 10.611283 10.050000
16828 4 -32.051050 13.443283 10.050000
16829 4 -31.647965 12.729380 10.050000
16830 4 -30.800904 15.561380 10.050000
16831 4 -30.397820 14.847478 10.050000
16832 4 -29.550758 17.679477 10.050000
16833 4 -29.147674 16.965575 10.050000
16834 4 -28.300613 19.797574 10.050000
16835 4 -27.897528 19.083672 10.050000
16836 4 -27.050467 21.915672 10.050000
16837 4 -26.647383 21.201769 10.050000
16838 4 -25.800322 24.033769 10.050000
16839 4 -25.397237 23.319867 10.050000
16840 4 -24.550176 26.151866 10.050000
16841 4 -24.147091 25.437964 10.050000
16842 4 -23.300030 28.269963 10.050000
16843 4 -22.896946 27.556061 10.050000
16844 4 -22.049885 30.388061 10.050000
16845 4 -21.646800 29.674158 10.050000
16846 4 -20.799739 32.506158 10.050000
16847 4 -20.396655 31.792256 10.050000
16848 4 -19.549593 34.624255 10.050000
16849 4 -19.146509 33.910353 10.050000
16850 4 -18.299448 36.742352 10.050000
16851 4 -17.896363 36.028450 10.050000
16852 4 -17.049302 38.860449 10.050000
16853 4 -16.646218 38.146547 10.050000
16854 4 -15.799156 40.978547 10.050000
16855 4 -15.396072 40.264645 10.050000
16856 4 -14.549011 43.096644 10.050000
16857 4 -14.145926 42.382742 10.050000
16858 4 -13.298865 45.214741 10.050000
16859 4 -12.895781 44.500839 10.050000
16860 4 -12.048720 47.332838 10.050000
16861 4 -11.645635 46.618936 10.050000
16862 4 -10.798574 49.450936 10.050000
16863 4 -10.395490 48.737033 10.050000
16864 4 -9.548428 51.569033 10.050000
16865 4 -9.145344 50.855131 10.050000
16866 4 -8.298283 53.687130 10.050000
16867 4 -7.895198 52.973228 10.050000
16868 4 -7.048137 55.805227 10.050000
16869 4 -6.645053 55.091325 10.050000
16870 4 -5.797991 57.923325 10.050000
16871 4 -5.394907 57.209422 10.050000
16872 4 -62.095437 -41.650855 10.050000
16873 4 -61.692353 -42.364757 10.050000
16874 4 -60.845292 -39.532757 10.050000
16875 4 -60.442207 -40.246660 10.050000
16876 4 -59.595146 -37.414660 10.050000
16877 4 -59.192062 -38.128562 10.050000
16878 4 -58.345000 -35.296563 10.050000
16879 4 -57.941916 -36.010465 10.050000
16880 4 -57.094855 -33.178466 10.050000
16881 4 -56.691770 -33.892368 10.050000
16882 4 -55.844709 -31.060369 10.050000
16883 4 -55.441625 -31.774271 10.050000
16884 4 -54.594564 -28.942271 10.050000
16885 4 -54.191479 -29.656173 10.050000
16886 4 -53.344418 -26.824174 10.050000
16887 4 -52.941333 -27.538076 10.050000
16888 4 -52.094272 -24.706077 10.050000
16889 4 -51.691188 -25.419979 10.050000
16890 4 -50.844127 -22.587980 10.050000
16891 4 -50.441042 -23.301882 10.050000
16892 4 -49.593981 -20.469882 10.050000
16893 4 -49.190897 -21.183785 10.050000
16894 4 -48.343835 -18.351785 10.050000
16895 4 -47.940751 -19.065687 10.050000
16896 4 -47.093690 -16.233688 10.050000
16897 4 -46.690605 -16.947590 10.050000
16898 4 -45.843544 -14.115591 10.050000
16899 4 -45.440460 -14.829493 10.050000
16900 4 -44.593398 -11.997493 10.050000
16901 4 -44.190314 -12.711396 10.050000
16902 4 -43.343253 -9.879396 10.050000
16903 4 -42.940168 -10.593298 10.050000
16904 4 -42.093107 -7.761299 10.050000
16905 4 -41.690023 -8.475201 10.050000
16906 4 -40.842962 -5.643202 10.050000
16907 4 -40.439877 -6.357104 10.050000
16908 4 -39.592816 -3.525105 10.050000
16909 4 -39.189732 -4.239007 10.050000
16910 4 -38.342670 -1.407007 10.050000
16911 4 -37.939586 -2.120909 10.050000
16912 4 -37.092525 0.711090 10.050000
16913 4 -36.689440 -0.002812 10.050000
16914 4 -35.842379 2.829187 10.050000
16915 4 -35.439295 2.115285 10.050000
16916 4 -34.592233 4.947284 10.050000
16917 4 -34.189149 4.233382 10.050000
16918 4 -33.342088 7.065382 10.050000
16919 4 -32.939003 6.351480 10.050000
16920 4 -32.091942 9.183479 10.050000
16921 4 -31.688858 8.469577 10.050000
16922 4 -30.841796 11.301576 10.050000
16923 4 -30.438712 10.587674 10.050000
16924 4 -29.591651 13.419673 10.050000
16925 4 -29.188566 12.705771 10.050000
16926 4 -28.341505 15.537771 10.050000
16927 4 -27.938421 14.823868 10.050000
16928 4 -27.091360 17.655868 10.050000
16929 4 -26.688275 16.941966 10.050000
16930 4 -25.841214 19.773965 10.050000
16931 4 -25.438130 19.060063 10.050000
16932 4 -24.591068 21.892062 10.050000
16933 4 -24.187984 21.178160 10.050000
16934 4 -23.340923 24.010160 10.050000
16935 4 -22.937838 23.296257 10.050000
16936 4 -22.090777 26.128257 10.050000
16937 4 -21.687693 25.414355 10.050000
16938 4 -20.840631 28.246354 10.050000
16939 4 -20.437547 27.532452 10.050000
16940 4 -19.590486 30.364451 10.050000
16941 4 -19.187401 29.650549 10.050000
16942 4 -18.340340 32.482548 10.050000
16943 4 -17.937256 31.768646 10.050000
16944 4 -17.090195 34.600646 10.050000
16945 4 -16.687110 33.886744 10.050000
16946 4 -15.840049 36.718743 10.050000
16947 4 -15.436964 36.004841 10.050000
16948 4 -14.589903 38.836840 10.050000
16949 4 -14.186819 38.122938 10.050000
16950 4 -13.339758 40.954937 10.050000
16951 4 -12.936673 40.241035 10.050000
16952 4 -12.089612 43.073035 10.050000
16953 4 -11.686528 42.359133 10.050000
16954 4 -10.839466 45.191132 10.050000
16955 4 -10.436382 44.477230 10.050000
16956 4 -9.589321 47.309229 10.050000
16957 4 -9.186236 46.595327 10.050000
16958 4 -8.339175 49.427326 10.050000
16959 4 -7.936091 48.713424 10.050000
16960 4 -7.089029 51.545424 10.050000
16961 4 -6.685945 50.831521 10.050000
16962 4 -5.838884 53.663521 10.050000
16963 4 -5.435799 52.949619 10.050000
16964 4 -4.588738 55.781618 10.050000
16965 4 -4.185654 55.067716 10.050000
16966 4 -3.338593 57.899715 10.050000
16967 4 -2.935508 57.185813 10.050000
16968 4 -60.886184 -43.792561 10.050000
16969 4 -60.483100 -44.506463 10.050000
16970 4 -59.636038 -41.674464 10.050000
16971 4 -59.232954 -42.388366 10.050000
16972 4 -58.385893 -39.556367 10.050000
16973 4 -57.982808 -40.270269 10.050000
16974 4 -57.135747 -37.438270 10.050000
16975 4 -56.732663 -38.152172 10.050000
16976 4 -55.885602 -35.320172 10.050000
16977 4 -55.482517 -36.034074 10.050000
16978 4 -54.635456 -33.202075 10.050000
16979 4 -54.232372 -33.915977 10.050000
16980 4 -53.385310 -31.083978 10.050000
16981 4 -52.982226 -31.797880 10.050000
16982 4 -52.135165 -28.965881 10.050000
16983 4 -51.732080 -29.679783 10.050000
16984 4 -50.885019 -26.847783 10.050000
16985 4 -50.481935 -27.561686 10.050000
16986 4 -49.634873 -24.729686 10.050000
16987 4 -49.231789 -25.443588 10.050000
16988 4 -48.384728 -22.611589 10.050000
16989 4 -47.981643 -23.325491 10.050000
16990 4 -47.134582 -20.493492 10.050000
16991 4 -46.731498 -21.207394 10.050000
16992 4 -45.884437 -18.375394 10.050000
16993 4 -45.481352 -19.089297 10.050000
16994 4 -44.634291 -16.257297 10.050000
16995 4 -44.231206 -16.971199 10.050000
16996 4 -43.384145 -14.139200 10.050000
16997 4 -42.981061 -14.853102 10.050000
16998 4 -42.134000 -12.021103 10.050000
16999 4 -41.730915 -12.735005 10.050000
17000 4 -40.883854 -9.903005 10.050000
17001 4 -40.480770 -10.616908 10.050000
17002 4 -39.633708 -7.784908 10.050000
17003 4 -39.230624 -8.498810 10.050000
17004 4 -38.383563 -5.666811 10.050000
17005 4 -37.980478 -6.380713 10.050000
17006 4 -37.133417 -3.548714 10.050000
17007 4 -36.730333 -4.262616 10.050000
17008 4 -35.883271 -1.430617 10.050000
17009 4 -35.480187 -2.144519 10.050000
17010 4 -34.633126 0.687481 10.050000
17011 4 -34.230041 -0.026421 10.050000
17012 4 -33.382980 2.805578 10.050000
17013 4 -32.979896 2.091676 10.050000
17014 4 -32.132835 4.923675 10.050000
17015 4 -31.729750 4.209773 10.050000
17016 4 -30.882689 7.041772 10.050000
17017 4 -30.479605 6.327870 10.050000
17018 4 -29.632543 9.159870 10.050000
17019 4 -29.229459 8.445967 10.050000
17020 4 -28.382398 11.277967 10.050000
17021 4 -27.979313 10.564065 10.050000
17022 4 -27.132252 13.396064 10.050000
17023 4 -26.729168 12.682162 10.050000
17024 4 -25.882106 15.514161 10.050000
17025 4 -25.479022 14.800259 10.050000
17026 4 -24.631961 17.632259 10.050000
17027 4 -24.228876 16.918356 10.050000
17028 4 -23.381815 19.750356 10.050000
17029 4 -22.978731 19.036454 10.050000
17030 4 -22.131669 21.868453 10.050000
17031 4 -21.728585 21.154551 10.050000
17032 4 -20.881524 23.986550 10.050000
17033 4 -20.478439 23.272648 10.050000
17034 4 -19.631378 26.104648 10.050000
17035 4 -19.228294 25.390745 10.050000
17036 4 -18.381233 28.222745 10.050000
17037 4 -17.978148 27.508843 10.050000
17038 4 -17.131087 30.340842 10.050000
17039 4 -16.728003 29.626940 10.050000
17040 4 -15.880941 32.458939 10.050000
17041 4 -15.477857 31.745037 10.050000
17042 4 -14.630796 34.577036 10.050000
17043 4 -14.227711 33.863134 10.050000
17044 4 -13.380650 36.695134 10.050000
17045 4 -12.977566 35.981232 10.050000
17046 4 -12.130504 38.813231 10.050000
17047 4 -11.727420 38.099329 10.050000
17048 4 -10.880359 40.931328 10.050000
17049 4 -10.477274 40.217426 10.050000
17050 4 -9.630213 43.049425 10.050000
17051 4 -9.227129 42.335523 10.050000
17052 4 -8.380068 45.167523 10.050000
17053 4 -7.976983 44.453620 10.050000
17054 4 -7.129922 47.285620 10.050000
17055 4 -6.726837 46.571718 10.050000
17056 4 -5.879776 49.403717 10.050000
17057 4 -5.476692 48.689815 10.050000
17058 4 -4.629631 51.521814 10.050000
17059 4 -4.226546 50.807912 10.050000
17060 4 -3.379485 53.639912 10.050000
17061 4 -2.976401 52.926009 10.050000
17062 4 -2.129339 55.758009 10.050000
17063 4 -1.726255 55.044107 10.050000
17064 4 -0.879194 57.876106 10.050000
17065 4 -0.476109 57.162204 10.050000
17066 4 -59.676931 -45.934268 10.050000
17067 4 -59.273847 -46.648170 10.050000
17068 4 -58.426785 -43.816170 10.050000
17069 4 -58.023701 -44.530073 10.050000
17070 4 -57.176640 -41.698073 10.050000
17071 4 -56.773555 -42.411975 10.050000
17072 4 -55.926494 -39.579976 10.050000
17073 4 -55.523410 -40.293878 10.050000
17074 4 -54.676348 -37.461879 10.050000
17075 4 -54.273264 -38.175781 10.050000
17076 4 -53.426203 -35.343782 10.050000
17077 4 -53.023118 -36.057684 10.050000
17078 4 -52.176057 -33.225684 10.050000
17079 4 -51.772973 -33.939586 10.050000
17080 4 -50.925911 -31.107587 10.050000
17081 4 -50.522827 -31.821489 10.050000
17082 4 -49.675766 -28.989490 10.050000
17083 4 -49.272681 -29.703392 10.050000
17084 4 -48.425620 -26.871393 10.050000
17085 4 -48.022536 -27.585295 10.050000
17086 4 -47.175475 -24.753295 10.050000
17087 4 -46.772390 -25.467198 10.050000
17088 4 -45.925329 -22.635198 10.050000
17089 4 -45.522245 -23.349100 10.050000
17090 4 -44.675183 -20.517101 10.050000
17091 4 -44.272099 -21.231003 10.050000
17092 4 -43.425038 -18.399004 10.050000
17093 4 -43.021953 -19.112906 10.050000
17094 4 -42.174892 -16.280906 10.050000
17095 4 -41.771808 -16.994809 10.050000
17096 4 -40.924746 -14.162809 10.050000
17097 4 -40.521662 -14.876711 10.050000
17098 4 -39.674601 -12.044712 10.050000
17099 4 -39.271516 -12.758614 10.050000
17100 4 -38.424455 -9.926615 10.050000
17101 4 -38.021371 -10.640517 10.050000
17102 4 -37.174310 -7.808517 10.050000
17103 4 -36.771225 -8.522420 10.050000
17104 4 -35.924164 -5.690420 10.050000
17105 4 -35.521079 -6.404322 10.050000
17106 4 -34.674018 -3.572323 10.050000
17107 4 -34.270934 -4.286225 10.050000
17108 4 -33.423873 -1.454226 10.050000
17109 4 -33.020788 -2.168128 10.050000
17110 4 -32.173727 0.663871 10.050000
17111 4 -31.770643 -0.050031 10.050000
17112 4 -30.923581 2.781969 10.050000
17113 4 -30.520497 2.068067 10.050000
17114 4 -29.673436 4.900066 10.050000
17115 4 -29.270351 4.186164 10.050000
17116 4 -28.423290 7.018163 10.050000
17117 4 -28.020206 6.304261 10.050000
17118 4 -27.173144 9.136260 10.050000
17119 4 -26.770060 8.422358 10.050000
17120 4 -25.922999 11.254358 10.050000
17121 4 -25.519914 10.540455 10.050000
17122 4 -24.672853 13.372455 10.050000
17123 4 -24.269769 12.658553 10.050000
17124 4 -23.422708 15.490552 10.050000
17125 4 -23.019623 14.776650 10.050000
17126 4 -22.172562 17.608649 10.050000
17127 4 -21.769478 16.894747 10.050000
17128 4 -20.922416 19.726747 10.050000
17129 4 -20.519332 19.012844 10.050000
17130 4 -19.672271 21.844844 10.050000
17131 4 -19.269186 21.130942 10.050000
17132 4 -18.422125 23.962941 10.050000
17133 4 -18.019041 23.249039 10.050000
17134 4 -17.171979 26.081038 10.050000
17135 4 -16.768895 25.367136 10.050000
17136 4 -15.921834 28.199136 10.050000
17137 4 -15.518749 27.485233 10.050000
17138 4 -14.671688 30.317233 10.050000
17139 4 -14.268604 29.603331 10.050000
17140 4 -13.421542 32.435330 10.050000
17141 4 -13.018458 31.721428 10.050000
17142 4 -12.171397 34.553427 10.050000
17143 4 -11.768312 33.839525 10.050000
17144 4 -10.921251 36.671524 10.050000
17145 4 -10.518167 35.957622 10.050000
17146 4 -9.671106 38.789622 10.050000
17147 4 -9.268021 38.075720 10.050000
17148 4 -8.420960 40.907719 10.050000
17149 4 -8.017876 40.193817 10.050000
17150 4 -7.170814 43.025816 10.050000
17151 4 -6.767730 42.311914 10.050000
17152 4 -5.920669 45.143913 10.050000
17153 4 -5.517584 44.430011 10.050000
17154 4 -4.670523 47.262011 10.050000
17155 4 -4.267439 46.548108 10.050000
17156 4 -3.420377 49.380108 10.050000
17157 4 -3.017293 48.666206 10.050000
17158 4 -2.170232 51.498205 10.050000
17159 4 -1.767147 50.784303 10.050000
17160 4 -0.920086 53.616302 10.050000
17161 4 -0.517002 52.902400 10.050000
17162 4 0.330059 55.734400 10.050000
17163 4 0.733144 55.020497 10.050000
17164 4 1.580205 57.852497 10.050000
17165 4 1.983290 57.138595 10.050000
17166 4 -58.467678 -48.075974 10.050000
17167 4 -58.064593 -48.789876 10.050000
17168 4 -57.217532 -45.957877 10.050000
17169 4 -56.814448 -46.671779 10.050000
17170 4 -55.967386 -43.839780 10.050000
17171 4 -55.564302 -44.553682 10.050000
17172 4 -54.717241 -41.721683 10.050000
17173 4 -54.314156 -42.435585 10.050000
17174 4 -53.467095 -39.603585 10.050000
17175 4 -53.064011 -40.317487 10.050000
17176 4 -52.216950 -37.485488 10.050000
17177 4 -51.813865 -38.199390 10.050000
17178 4 -50.966804 -35.367391 10.050000
17179 4 -50.563720 -36.081293 10.050000
17180 4 -49.716658 -33.249294 10.050000
17181 4 -49.313574 -33.963196 10.050000
17182 4 -48.466513 -31.131196 10.050000
17183 4 -48.063428 -31.845098 10.050000
17184 4 -47.216367 -29.013099 10.050000
17185 4 -46.813283 -29.727001 10.050000
17186 4 -45.966221 -26.895002 10.050000
17187 4 -45.563137 -27.608904 10.050000
17188 4 -44.716076 -24.776905 10.050000
17189 4 -44.312991 -25.490807 10.050000
17190 4 -43.465930 -22.658807 10.050000
17191 4 -43.062846 -23.372710 10.050000
17192 4 -42.215784 -20.540710 10.050000
17193 4 -41.812700 -21.254612 10.050000
17194 4 -40.965639 -18.422613 10.050000
17195 4 -40.562554 -19.136515 10.050000
17196 4 -39.715493 -16.304516 10.050000
17197 4 -39.312409 -17.018418 10.050000
17198 4 -38.465348 -14.186418 10.050000
17199 4 -38.062263 -14.900321 10.050000
17200 4 -37.215202 -12.068321 10.050000
17201 4 -36.812118 -12.782223 10.050000
17202 4 -35.965056 -9.950224 10.050000
17203 4 -35.561972 -10.664126 10.050000
17204 4 -34.714911 -7.832127 10.050000
17205 4 -34.311826 -8.546029 10.050000
17206 4 -33.464765 -5.714030 10.050000
17207 4 -33.061681 -6.427932 10.050000
17208 4 -32.214619 -3.595932 10.050000
17209 4 -31.811535 -4.309834 10.050000
17210 4 -30.964474 -1.477835 10.050000
17211 4 -30.561389 -2.191737 10.050000
17212 4 -29.714328 0.640262 10.050000
17213 4 -29.311244 -0.073640 10.050000
17214 4 -28.464183 2.758359 10.050000
17215 4 -28.061098 2.044457 10.050000
17216 4 -27.214037 4.876457 10.050000
17217 4 -26.810952 4.162554 10.050000
17218 4 -25.963891 6.994554 10.050000
17219 4 -25.560807 6.280652 10.050000
17220 4 -24.713746 9.112651 10.050000
17221 4 -24.310661 8.398749 10.050000
17222 4 -23.463600 11.230748 10.050000
17223 4 -23.060516 10.516846 10.050000
17224 4 -22.213454 13.348846 10.050000
17225 4 -21.810370 12.634943 10.050000
17226 4 -20.963309 15.466943 10.050000
17227 4 -20.560224 14.753041 10.050000
17228 4 -19.713163 17.585040 10.050000
17229 4 -19.310079 16.871138 10.050000
17230 4 -18.463017 19.703137 10.050000
17231 4 -18.059933 18.989235 10.050000
17232 4 -17.212872 21.821235 10.050000
17233 4 -16.809787 21.107332 10.050000
17234 4 -15.962726 23.939332 10.050000
17235 4 -15.559642 23.225430 10.050000
17236 4 -14.712581 26.057429 10.050000
17237 4 -14.309496 25.343527 10.050000
17238 4 -13.462435 28.175526 10.050000
17239 4 -13.059351 27.461624 10.050000
17240 4 -12.212289 30.293623 10.050000
17241 4 -11.809205 29.579721 10.050000
17242 4 -10.962144 32.411721 10.050000
17243 4 -10.559059 31.697819 10.050000
17244 4 -9.711998 34.529818 10.050000
17245 4 -9.308914 33.815916 10.050000
17246 4 -8.461852 36.647915 10.050000
17247 4 -8.058768 35.934013 10.050000
17248 4 -7.211707 38.766012 10.050000
17249 4 -6.808622 38.052110 10.050000
17250 4 -5.961561 40.884110 10.050000
17251 4 -5.558477 40.170207 10.050000
17252 4 -4.711415 43.002207 10.050000
17253 4 -4.308331 42.288305 10.050000
17254 4 -3.461270 45.120304 10.050000
17255 4 -3.058185 44.406402 10.050000
17256 4 -2.211124 47.238401 10.050000
17257 4 -1.808040 46.524499 10.050000
17258 4 -0.960979 49.356499 10.050000
17259 4 -0.557894 48.642596 10.050000
17260 4 0.289167 51.474596 10.050000
17261 4 0.692251 50.760694 10.050000
17262 4 1.539313 53.592693 10.050000
17263 4 1.942397 52.878791 10.050000
17264 4 2.789458 55.710790 10.050000
17265 4 3.192543 54.996888 10.050000
17266 4 4.039604 57.828888 10.050000
17267 4 4.442688 57.114985 10.050000
17268 4 -57.258425 -50.217681 10.050000
17269 4 -56.855340 -50.931583 10.050000
17270 4 -56.008279 -48.099583 10.050000
17271 4 -55.605194 -48.813486 10.050000
17272 4 -54.758133 -45.981486 10.050000
17273 4 -54.355049 -46.695388 10.050000
17274 4 -53.507988 -43.863389 10.050000
17275 4 -53.104903 -44.577291 10.050000
17276 4 -52.257842 -41.745292 10.050000
17277 4 -51.854758 -42.459194 10.050000
17278 4 -51.007696 -39.627195 10.050000
17279 4 -50.604612 -40.341097 10.050000
17280 4 -49.757551 -37.509097 10.050000
17281 4 -49.354466 -38.222999 10.050000
17282 4 -48.507405 -35.391000 10.050000
17283 4 -48.104321 -36.104902 10.050000
17284 4 -47.257259 -33.272903 10.050000
17285 4 -46.854175 -33.986805 10.050000
17286 4 -46.007114 -31.154806 10.050000
17287 4 -45.604029 -31.868708 10.050000
17288 4 -44.756968 -29.036708 10.050000
17289 4 -44.353884 -29.750611 10.050000
17290 4 -43.506823 -26.918611 10.050000
17291 4 -43.103738 -27.632513 10.050000
17292 4 -42.256677 -24.800514 10.050000
17293 4 -41.853593 -25.514416 10.050000
17294 4 -41.006531 -22.682417 10.050000
17295 4 -40.603447 -23.396319 10.050000
17296 4 -39.756386 -20.564319 10.050000
17297 4 -39.353301 -21.278222 10.050000
17298 4 -38.506240 -18.446222 10.050000
17299 4 -38.103156 -19.160124 10.050000
17300 4 -37.256094 -16.328125 10.050000
17301 4 -36.853010 -17.042027 10.050000
17302 4 -36.005949 -14.210028 10.050000
17303 4 -35.602864 -14.923930 10.050000
17304 4 -34.755803 -12.091930 10.050000
17305 4 -34.352719 -12.805833 10.050000
17306 4 -33.505657 -9.973833 10.050000
17307 4 -33.102573 -10.687735 10.050000
17308 4 -32.255512 -7.855736 10.050000
17309 4 -31.852427 -8.569638 10.050000
17310 4 -31.005366 -5.737639 10.050000
17311 4 -30.602282 -6.451541 10.050000
17312 4 -29.755221 -3.619542 10.050000
17313 4 -29.352136 -4.333444 10.050000
17314 4 -28.505075 -1.501444 10.050000
17315 4 -28.101991 -2.215346 10.050000
17316 4 -27.254929 0.616653 10.050000
17317 4 -26.851845 -0.097249 10.050000
17318 4 -26.004784 2.734750 10.050000
17319 4 -25.601699 2.020848 10.050000
17320 4 -24.754638 4.852847 10.050000
17321 4 -24.351554 4.138945 10.050000
17322 4 -23.504492 6.970945 10.050000
17323 4 -23.101408 6.257042 10.050000
17324 4 -22.254347 9.089042 10.050000
17325 4 -21.851262 8.375140 10.050000
17326 4 -21.004201 11.207139 10.050000
17327 4 -20.601117 10.493237 10.050000
17328 4 -19.754056 13.325236 10.050000
17329 4 -19.350971 12.611334 10.050000
17330 4 -18.503910 15.443334 10.050000
17331 4 -18.100825 14.729431 10.050000
17332 4 -17.253764 17.561431 10.050000
17333 4 -16.850680 16.847529 10.050000
17334 4 -16.003619 19.679528 10.050000
17335 4 -15.600534 18.965626 10.050000
17336 4 -14.753473 21.797625 10.050000
17337 4 -14.350389 21.083723 10.050000
17338 4 -13.503327 23.915723 10.050000
17339 4 -13.100243 23.201820 10.050000
17340 4 -12.253182 26.033820 10.050000
17341 4 -11.850097 25.319918 10.050000
17342 4 -11.003036 28.151917 10.050000
17343 4 -10.599952 27.438015 10.050000
17344 4 -9.752890 30.270014 10.050000
17345 4 -9.349806 29.556112 10.050000
17346 4 -8.502745 32.388111 10.050000
17347 4 -8.099660 31.674209 10.050000
17348 4 -7.252599 34.506209 10.050000
17349 4 -6.849515 33.792307 10.050000
17350 4 -6.002454 36.624306 10.050000
17351 4 -5.599369 35.910404 10.050000
17352 4 -4.752308 38.742403 10.050000
17353 4 -4.349224 38.028501 10.050000
17354 4 -3.502162 40.860500 10.050000
17355 4 -3.099078 40.146598 10.050000
17356 4 -2.252017 42.978598 10.050000
17357 4 -1.848932 42.264695 10.050000
17358 4 -1.001871 45.096695 10.050000
17359 4 -0.598787 44.382793 10.050000
17360 4 0.248275 47.214792 10.050000
17361 4 0.651359 46.500890 10.050000
17362 4 1.498420 49.332889 10.050000
17363 4 1.901505 48.618987 10.050000
17364 4 2.748566 51.450987 10.050000
17365 4 3.151650 50.737084 10.050000
17366 4 3.998711 53.569084 10.050000
17367 4 4.401796 52.855182 10.050000
17368 4 5.248857 55.687181 10.050000
17369 4 5.651942 54.973279 10.050000
17370 4 6.499003 57.805278 10.050000
17371 4 6.902087 57.091376 10.050000
17372 4 -56.049171 -52.359387 10.050000
17373 4 -54.799026 -50.241290 10.050000
17374 4 -54.395941 -50.955192 10.050000
17375 4 -53.548880 -48.123193 10.050000
17376 4 -53.145796 -48.837095 10.050000
17377 4 -52.298734 -46.005095 10.050000
17378 4 -51.895650 -46.718998 10.050000
17379 4 -51.048589 -43.886998 10.050000
17380 4 -50.645504 -44.600900 10.050000
17381 4 -49.798443 -41.768901 10.050000
17382 4 -49.395359 -42.482803 10.050000
17383 4 -48.548298 -39.650804 10.050000
17384 4 -48.145213 -40.364706 10.050000
17385 4 -47.298152 -37.532707 10.050000
17386 4 -46.895067 -38.246609 10.050000
17387 4 -46.048006 -35.414609 10.050000
17388 4 -45.644922 -36.128511 10.050000
17389 4 -44.797861 -33.296512 10.050000
17390 4 -44.394776 -34.010414 10.050000
17391 4 -43.547715 -31.178415 10.050000
17392 4 -43.144631 -31.892317 10.050000
17393 4 -42.297569 -29.060318 10.050000
17394 4 -41.894485 -29.774220 10.050000
17395 4 -41.047424 -26.942220 10.050000
17396 4 -40.644339 -27.656123 10.050000
17397 4 -39.797278 -24.824123 10.050000
17398 4 -39.394194 -25.538025 10.050000
17399 4 -38.547132 -22.706026 10.050000
17400 4 -38.144048 -23.419928 10.050000
17401 4 -37.296987 -20.587929 10.050000
17402 4 -36.893902 -21.301831 10.050000
17403 4 -36.046841 -18.469831 10.050000
17404 4 -35.643757 -19.183734 10.050000
17405 4 -34.796696 -16.351734 10.050000
17406 4 -34.393611 -17.065636 10.050000
17407 4 -33.546550 -14.233637 10.050000
17408 4 -33.143466 -14.947539 10.050000
17409 4 -32.296404 -12.115540 10.050000
17410 4 -31.893320 -12.829442 10.050000
17411 4 -31.046259 -9.997443 10.050000
17412 4 -30.643174 -10.711345 10.050000
17413 4 -29.796113 -7.879345 10.050000
17414 4 -29.393029 -8.593247 10.050000
17415 4 -28.545967 -5.761248 10.050000
17416 4 -28.142883 -6.475150 10.050000
17417 4 -27.295822 -3.643151 10.050000
17418 4 -26.892737 -4.357053 10.050000
17419 4 -26.045676 -1.525054 10.050000
17420 4 -25.642592 -2.238956 10.050000
17421 4 -24.795530 0.593044 10.050000
17422 4 -24.392446 -0.120858 10.050000
17423 4 -23.545385 2.711141 10.050000
17424 4 -23.142300 1.997239 10.050000
17425 4 -22.295239 4.829238 10.050000
17426 4 -21.892155 4.115336 10.050000
17427 4 -21.045094 6.947335 10.050000
17428 4 -20.642009 6.233433 10.050000
17429 4 -19.794948 9.065433 10.050000
17430 4 -19.391864 8.351530 10.050000
17431 4 -18.544802 11.183530 10.050000
17432 4 -18.141718 10.469628 10.050000
17433 4 -17.294657 13.301627 10.050000
17434 4 -16.891572 12.587725 10.050000
17435 4 -16.044511 15.419724 10.050000
17436 4 -15.641427 14.705822 10.050000
17437 4 -14.794365 17.537822 10.050000
17438 4 -14.391281 16.823919 10.050000
17439 4 -13.544220 19.655919 10.050000
17440 4 -13.141135 18.942017 10.050000
17441 4 -12.294074 21.774016 10.050000
17442 4 -11.890990 21.060114 10.050000
17443 4 -11.043929 23.892113 10.050000
17444 4 -10.640844 23.178211 10.050000
17445 4 -9.793783 26.010210 10.050000
17446 4 -9.390699 25.296308 10.050000
17447 4 -8.543637 28.128308 10.050000
17448 4 -8.140553 27.414406 10.050000
17449 4 -7.293492 30.246405 10.050000
17450 4 -6.890407 29.532503 10.050000
17451 4 -6.043346 32.364502 10.050000
17452 4 -5.640262 31.650600 10.050000
17453 4 -4.793200 34.482599 10.050000
17454 4 -4.390116 33.768697 10.050000
17455 4 -3.543055 36.600697 10.050000
17456 4 -3.139970 35.886795 10.050000
17457 4 -2.292909 38.718794 10.050000
17458 4 -1.889825 38.004892 10.050000
17459 4 -1.042763 40.836891 10.050000
17460 4 -0.639679 40.122989 10.050000
17461 4 0.207382 42.954988 10.050000
17462 4 0.610467 42.241086 10.050000
17463 4 1.457528 45.073086 10.050000
17464 4 1.860612 44.359183 10.050000
17465 4 2.707673 47.191183 10.050000
17466 4 3.110758 46.477281 10.050000
17467 4 3.957819 49.309280 10.050000
17468 4 4.360903 48.595378 10.050000
17469 4 5.207965 51.427377 10.050000
17470 4 5.611049 50.713475 10.050000
17471 4 6.458110 53.545475 10.050000
17472 4 6.861195 52.831572 10.050000
17473 4 7.708256 55.663572 10.050000
17474 4 8.111340 54.949670 10.050000
17475 4 8.958402 57.781669 10.050000
17476 4 9.361486 57.067767 10.050000
17477 4 -53.589772 -52.382996 10.050000
17478 4 -53.186688 -53.096899 10.050000
17479 4 -52.339627 -50.264899 10.050000
17480 4 -51.936542 -50.978801 10.050000
17481 4 -51.089481 -48.146802 10.050000
17482 4 -50.686397 -48.860704 10.050000
17483 4 -49.839336 -46.028705 10.050000
17484 4 -49.436251 -46.742607 10.050000
17485 4 -48.589190 -43.910608 10.050000
17486 4 -48.186106 -44.624510 10.050000
17487 4 -47.339044 -41.792510 10.050000
17488 4 -46.935960 -42.506412 10.050000
17489 4 -46.088899 -39.674413 10.050000
17490 4 -45.685814 -40.388315 10.050000
17491 4 -44.838753 -37.556316 10.050000
17492 4 -44.435669 -38.270218 10.050000
17493 4 -43.588607 -35.438219 10.050000
17494 4 -43.185523 -36.152121 10.050000
17495 4 -42.338462 -33.320121 10.050000
17496 4 -41.935377 -34.034024 10.050000
17497 4 -41.088316 -31.202024 10.050000
17498 4 -40.685232 -31.915926 10.050000
17499 4 -39.838171 -29.083927 10.050000
17500 4 -39.435086 -29.797829 10.050000
17501 4 -38.588025 -26.965830 10.050000
17502 4 -38.184940 -27.679732 10.050000
17503 4 -37.337879 -24.847732 10.050000
17504 4 -36.934795 -25.561635 10.050000
17505 4 -36.087734 -22.729635 10.050000
17506 4 -35.684649 -23.443537 10.050000
17507 4 -34.837588 -20.611538 10.050000
17508 4 -34.434504 -21.325440 10.050000
17509 4 -33.587442 -18.493441 10.050000
17510 4 -33.184358 -19.207343 10.050000
17511 4 -32.337297 -16.375343 10.050000
17512 4 -31.934212 -17.089246 10.050000
17513 4 -31.087151 -14.257246 10.050000
17514 4 -30.684067 -14.971148 10.050000
17515 4 -29.837005 -12.139149 10.050000
17516 4 -29.433921 -12.853051 10.050000
17517 4 -28.586860 -10.021052 10.050000
17518 4 -28.183775 -10.734954 10.050000
17519 4 -27.336714 -7.902955 10.050000
17520 4 -26.933630 -8.616857 10.050000
17521 4 -26.086569 -5.784857 10.050000
17522 4 -25.683484 -6.498759 10.050000
17523 4 -24.836423 -3.666760 10.050000
17524 4 -24.433339 -4.380662 10.050000
17525 4 -23.586277 -1.548663 10.050000
17526 4 -23.183193 -2.262565 10.050000
17527 4 -22.336132 0.569434 10.050000
17528 4 -21.933047 -0.144468 10.050000
17529 4 -21.085986 2.687532 10.050000
17530 4 -20.682902 1.973629 10.050000
17531 4 -19.835840 4.805629 10.050000
17532 4 -19.432756 4.091727 10.050000
17533 4 -18.585695 6.923726 10.050000
17534 4 -18.182610 6.209824 10.050000
17535 4 -17.335549 9.041823 10.050000
17536 4 -16.932465 8.327921 10.050000
17537 4 -16.085404 11.159921 10.050000
17538 4 -15.682319 10.446018 10.050000
17539 4 -14.835258 13.278018 10.050000
17540 4 -14.432173 12.564116 10.050000
17541 4 -13.585112 15.396115 10.050000
17542 4 -13.182028 14.682213 10.050000
17543 4 -12.334967 17.514212 10.050000
17544 4 -11.931882 16.800310 10.050000
17545 4 -11.084821 19.632310 10.050000
17546 4 -10.681737 18.918407 10.050000
17547 4 -9.834675 21.750407 10.050000
17548 4 -9.431591 21.036505 10.050000
17549 4 -8.584530 23.868504 10.050000
17550 4 -8.181445 23.154602 10.050000
17551 4 -7.334384 25.986601 10.050000
17552 4 -6.931300 25.272699 10.050000
17553 4 -6.084238 28.104698 10.050000
17554 4 -5.681154 27.390796 10.050000
17555 4 -4.834093 30.222796 10.050000
17556 4 -4.431008 29.508894 10.050000
17557 4 -3.583947 32.340893 10.050000
17558 4 -3.180863 31.626991 10.050000
17559 4 -2.333802 34.458990 10.050000
17560 4 -1.930717 33.745088 10.050000
17561 4 -1.083656 36.577087 10.050000
17562 4 -0.680572 35.863185 10.050000
17563 4 0.166490 38.695185 10.050000
17564 4 0.569574 37.981282 10.050000
17565 4 1.416635 40.813282 10.050000
17566 4 1.819720 40.099380 10.050000
17567 4 2.666781 42.931379 10.050000
17568 4 3.069865 42.217477 10.050000
17569 4 3.916927 45.049476 10.050000
17570 4 4.320011 44.335574 10.050000
17571 4 5.167072 47.167574 10.050000
17572 4 5.570157 46.453671 10.050000
17573 4 6.417218 49.285671 10.050000
17574 4 6.820302 48.571769 10.050000
17575 4 7.667364 51.403768 10.050000
17576 4 8.070448 50.689866 10.050000
17577 4 8.917509 53.521865 10.050000
17578 4 9.320594 52.807963 10.050000
17579 4 10.167655 55.639963 10.050000
17580 4 10.570739 54.926060 10.050000
17581 4 11.417800 57.758060 10.050000
17582 4 11.820885 57.044158 10.050000
17583 4 -52.380519 -54.524703 10.050000
17584 4 -51.977435 -55.238605 10.050000
17585 4 -51.130374 -52.406606 10.050000
17586 4 -50.727289 -53.120508 10.050000
17587 4 -49.880228 -50.288508 10.050000
17588 4 -49.477144 -51.002411 10.050000
17589 4 -48.630082 -48.170411 10.050000
17590 4 -48.226998 -48.884313 10.050000
17591 4 -47.379937 -46.052314 10.050000
17592 4 -46.976852 -46.766216 10.050000
17593 4 -46.129791 -43.934217 10.050000
17594 4 -45.726707 -44.648119 10.050000
17595 4 -44.879645 -41.816120 10.050000
17596 4 -44.476561 -42.530022 10.050000
17597 4 -43.629500 -39.698022 10.050000
17598 4 -43.226415 -40.411924 10.050000
17599 4 -42.379354 -37.579925 10.050000
17600 4 -41.976270 -38.293827 10.050000
17601 4 -41.129209 -35.461828 10.050000
17602 4 -40.726124 -36.175730 10.050000
17603 4 -39.879063 -33.343731 10.050000
17604 4 -39.475979 -34.057633 10.050000
17605 4 -38.628917 -31.225633 10.050000
17606 4 -38.225833 -31.939536 10.050000
17607 4 -37.378772 -29.107536 10.050000
17608 4 -36.975687 -29.821438 10.050000
17609 4 -36.128626 -26.989439 10.050000
17610 4 -35.725542 -27.703341 10.050000
17611 4 -34.878480 -24.871342 10.050000
17612 4 -34.475396 -25.585244 10.050000
17613 4 -33.628335 -22.753244 10.050000
17614 4 -33.225250 -23.467147 10.050000
17615 4 -32.378189 -20.635147 10.050000
17616 4 -31.975105 -21.349049 10.050000
17617 4 -31.128044 -18.517050 10.050000
17618 4 -30.724959 -19.230952 10.050000
17619 4 -29.877898 -16.398953 10.050000
17620 4 -29.474814 -17.112855 10.050000
17621 4 -28.627752 -14.280855 10.050000
17622 4 -28.224668 -14.994758 10.050000
17623 4 -27.377607 -12.162758 10.050000
17624 4 -26.974522 -12.876660 10.050000
17625 4 -26.127461 -10.044661 10.050000
17626 4 -25.724377 -10.758563 10.050000
17627 4 -24.877315 -7.926564 10.050000
17628 4 -24.474231 -8.640466 10.050000
17629 4 -23.627170 -5.808467 10.050000
17630 4 -23.224085 -6.522369 10.050000
17631 4 -22.377024 -3.690369 10.050000
17632 4 -21.973940 -4.404271 10.050000
17633 4 -21.126878 -1.572272 10.050000
17634 4 -20.723794 -2.286174 10.050000
17635 4 -19.876733 0.545825 10.050000
17636 4 -19.473648 -0.168077 10.050000
17637 4 -18.626587 2.663922 10.050000
17638 4 -18.223503 1.950020 10.050000
17639 4 -17.376442 4.782020 10.050000
17640 4 -16.973357 4.068117 10.050000
17641 4 -16.126296 6.900117 10.050000
17642 4 -15.723212 6.186215 10.050000
17643 4 -14.876150 9.018214 10.050000
17644 4 -14.473066 8.304312 10.050000
17645 4 -13.626005 11.136311 10.050000
17646 4 -13.222920 10.422409 10.050000
17647 4 -12.375859 13.254409 10.050000
17648 4 -11.972775 12.540506 10.050000
17649 4 -11.125713 15.372506 10.050000
17650 4 -10.722629 14.658604 10.050000
17651 4 -9.875568 17.490603 10.050000
17652 4 -9.472483 16.776701 10.050000
17653 4 -8.625422 19.608700 10.050000
17654 4 -8.222338 18.894798 10.050000
17655 4 -7.375277 21.726798 10.050000
17656 4 -6.972192 21.012895 10.050000
17657 4 -6.125131 23.844895 10.050000
17658 4 -5.722046 23.130993 10.050000
17659 4 -4.874985 25.962992 10.050000
17660 4 -4.471901 25.249090 10.050000
17661 4 -3.624840 28.081089 10.050000
17662 4 -3.221755 27.367187 10.050000
17663 4 -2.374694 30.199186 10.050000
17664 4 -1.971610 29.485284 10.050000
17665 4 -1.124548 32.317284 10.050000
17666 4 -0.721464 31.603382 10.050000
17667 4 0.125597 34.435381 10.050000
17668 4 0.528682 33.721479 10.050000
17669 4 1.375743 36.553478 10.050000
17670 4 1.778827 35.839576 10.050000
17671 4 2.625889 38.671575 10.050000
17672 4 3.028973 37.957673 10.050000
17673 4 3.876034 40.789673 10.050000
17674 4 4.279119 40.075770 10.050000
17675 4 5.126180 42.907770 10.050000
17676 4 5.529264 42.193868 10.050000
17677 4 6.376325 45.025867 10.050000
17678 4 6.779410 44.311965 10.050000
17679 4 7.626471 47.143964 10.050000
17680 4 8.029555 46.430062 10.050000
17681 4 8.876617 49.262062 10.050000
17682 4 9.279701 48.548159 10.050000
17683 4 10.126762 51.380159 10.050000
17684 4 10.529847 50.666257 10.050000
17685 4 11.376908 53.498256 10.050000
17686 4 11.779992 52.784354 10.050000
17687 4 12.627054 55.616353 10.050000
17688 4 13.030138 54.902451 10.050000
17689 4 13.877199 57.734450 10.050000
17690 4 14.280284 57.020548 10.050000
17691 4 -51.171266 -56.666409 10.050000
17692 4 -50.768182 -57.380312 10.050000
17693 4 -49.921120 -54.548312 10.050000
17694 4 -49.518036 -55.262214 10.050000
17695 4 -48.670975 -52.430215 10.050000
17696 4 -48.267890 -53.144117 10.050000
17697 4 -47.420829 -50.312118 10.050000
17698 4 -47.017745 -51.026020 10.050000
17699 4 -46.170684 -48.194021 10.050000
17700 4 -45.767599 -48.907923 10.050000
17701 4 -44.920538 -46.075923 10.050000
17702 4 -44.517454 -46.789825 10.050000
17703 4 -43.670392 -43.957826 10.050000
17704 4 -43.267308 -44.671728 10.050000
17705 4 -42.420247 -41.839729 10.050000
17706 4 -42.017162 -42.553631 10.050000
17707 4 -41.170101 -39.721632 10.050000
17708 4 -40.767017 -40.435534 10.050000
17709 4 -39.919955 -37.603534 10.050000
17710 4 -39.516871 -38.317436 10.050000
17711 4 -38.669810 -35.485437 10.050000
17712 4 -38.266725 -36.199339 10.050000
17713 4 -37.419664 -33.367340 10.050000
17714 4 -37.016580 -34.081242 10.050000
17715 4 -36.169519 -31.249243 10.050000
17716 4 -35.766434 -31.963145 10.050000
17717 4 -34.919373 -29.131145 10.050000
17718 4 -34.516288 -29.845048 10.050000
17719 4 -33.669227 -27.013048 10.050000
17720 4 -33.266143 -27.726950 10.050000
17721 4 -32.419082 -24.894951 10.050000
17722 4 -32.015997 -25.608853 10.050000
17723 4 -31.168936 -22.776854 10.050000
17724 4 -30.765852 -23.490756 10.050000
17725 4 -29.918790 -20.658756 10.050000
17726 4 -29.515706 -21.372659 10.050000
17727 4 -28.668645 -18.540659 10.050000
17728 4 -28.265560 -19.254561 10.050000
17729 4 -27.418499 -16.422562 10.050000
17730 4 -27.015415 -17.136464 10.050000
17731 4 -26.168353 -14.304465 10.050000
17732 4 -25.765269 -15.018367 10.050000
17733 4 -24.918208 -12.186368 10.050000
17734 4 -24.515123 -12.900270 10.050000
17735 4 -23.668062 -10.068270 10.050000
17736 4 -23.264978 -10.782172 10.050000
17737 4 -22.417917 -7.950173 10.050000
17738 4 -22.014832 -8.664075 10.050000
17739 4 -21.167771 -5.832076 10.050000
17740 4 -20.764687 -6.545978 10.050000
17741 4 -19.917625 -3.713979 10.050000
17742 4 -19.514541 -4.427881 10.050000
17743 4 -18.667480 -1.595881 10.050000
17744 4 -18.264395 -2.309784 10.050000
17745 4 -17.417334 0.522216 10.050000
17746 4 -17.014250 -0.191686 10.050000
17747 4 -16.167188 2.640313 10.050000
17748 4 -15.764104 1.926411 10.050000
17749 4 -14.917043 4.758410 10.050000
17750 4 -14.513958 4.044508 10.050000
17751 4 -13.666897 6.876508 10.050000
17752 4 -13.263813 6.162605 10.050000
17753 4 -12.416751 8.994605 10.050000
17754 4 -12.013667 8.280703 10.050000
17755 4 -11.166606 11.112702 10.050000
17756 4 -10.763521 10.398800 10.050000
17757 4 -9.916460 13.230799 10.050000
17758 4 -9.513376 12.516897 10.050000
17759 4 -8.666315 15.348897 10.050000
17760 4 -8.263230 14.634994 10.050000
17761 4 -7.416169 17.466994 10.050000
17762 4 -7.013085 16.753092 10.050000
17763 4 -6.166023 19.585091 10.050000
17764 4 -5.762939 18.871189 10.050000
17765 4 -4.915878 21.703188 10.050000
17766 4 -4.512793 20.989286 10.050000
17767 4 -3.665732 23.821285 10.050000
17768 4 -3.262648 23.107383 10.050000
17769 4 -2.415586 25.939383 10.050000
17770 4 -2.012502 25.225481 10.050000
17771 4 -1.165441 28.057480 10.050000
17772 4 -0.762356 27.343578 10.050000
17773 4 0.084705 30.175577 10.050000
17774 4 0.487789 29.461675 10.050000
17775 4 1.334850 32.293674 10.050000
17776 4 1.737935 31.579772 10.050000
17777 4 2.584996 34.411772 10.050000
17778 4 2.988081 33.697869 10.050000
17779 4 3.835142 36.529869 10.050000
17780 4 4.238226 35.815967 10.050000
17781 4 5.085287 38.647966 10.050000
17782 4 5.488372 37.934064 10.050000
17783 4 6.335433 40.766063 10.050000
17784 4 6.738517 40.052161 10.050000
17785 4 7.585579 42.884161 10.050000
17786 4 7.988663 42.170258 10.050000
17787 4 8.835724 45.002258 10.050000
17788 4 9.238809 44.288356 10.050000
17789 4 10.085870 47.120355 10.050000
17790 4 10.488954 46.406453 10.050000
17791 4 11.336016 49.238452 10.050000
17792 4 11.739100 48.524550 10.050000
17793 4 12.586161 51.356550 10.050000
17794 4 12.989246 50.642647 10.050000
17795 4 13.836307 53.474647 10.050000
17796 4 14.239391 52.760745 10.050000
17797 4 15.086452 55.592744 10.050000
17798 4 15.489537 54.878842 10.050000
17799 4 16.336598 57.710841 10.050000
17800 4 16.739682 56.996939 10.050000
17801 4 -48.711867 -56.690019 10.050000
17802 4 -48.308783 -57.403921 10.050000
17803 4 -47.461722 -54.571921 10.050000
17804 4 -47.058637 -55.285824 10.050000
17805 4 -46.211576 -52.453824 10.050000
17806 4 -45.808492 -53.167726 10.050000
17807 4 -44.961430 -50.335727 10.050000
17808 4 -44.558346 -51.049629 10.050000
17809 4 -43.711285 -48.217630 10.050000
17810 4 -43.308200 -48.931532 10.050000
17811 4 -42.461139 -46.099533 10.050000
17812 4 -42.058055 -46.813435 10.050000
17813 4 -41.210993 -43.981435 10.050000
17814 4 -40.807909 -44.695337 10.050000
17815 4 -39.960848 -41.863338 10.050000
17816 4 -39.557763 -42.577240 10.050000
17817 4 -38.710702 -39.745241 10.050000
17818 4 -38.307618 -40.459143 10.050000
17819 4 -37.460557 -37.627144 10.050000
17820 4 -37.057472 -38.341046 10.050000
17821 4 -36.210411 -35.509046 10.050000
17822 4 -35.807327 -36.222949 10.050000
17823 4 -34.960265 -33.390949 10.050000
17824 4 -34.557181 -34.104851 10.050000
17825 4 -33.710120 -31.272852 10.050000
17826 4 -33.307035 -31.986754 10.050000
17827 4 -32.459974 -29.154755 10.050000
17828 4 -32.056890 -29.868657 10.050000
17829 4 -31.209828 -27.036657 10.050000
17830 4 -30.806744 -27.750560 10.050000
17831 4 -29.959683 -24.918560 10.050000
17832 4 -29.556598 -25.632462 10.050000
17833 4 -28.709537 -22.800463 10.050000
17834 4 -28.306453 -23.514365 10.050000
17835 4 -27.459392 -20.682366 10.050000
17836 4 -27.056307 -21.396268 10.050000
17837 4 -26.209246 -18.564268 10.050000
17838 4 -25.806161 -19.278171 10.050000
17839 4 -24.959100 -16.446171 10.050000
17840 4 -24.556016 -17.160073 10.050000
17841 4 -23.708955 -14.328074 10.050000
17842 4 -23.305870 -15.041976 10.050000
17843 4 -22.458809 -12.209977 10.050000
17844 4 -22.055725 -12.923879 10.050000
17845 4 -21.208663 -10.091880 10.050000
17846 4 -20.805579 -10.805782 10.050000
17847 4 -19.958518 -7.973782 10.050000
17848 4 -19.555433 -8.687684 10.050000
17849 4 -18.708372 -5.855685 10.050000
17850 4 -18.305288 -6.569587 10.050000
17851 4 -17.458226 -3.737588 10.050000
17852 4 -17.055142 -4.451490 10.050000
17853 4 -16.208081 -1.619491 10.050000
17854 4 -15.804996 -2.333393 10.050000
17855 4 -14.957935 0.498607 10.050000
17856 4 -14.554851 -0.215296 10.050000
17857 4 -13.707790 2.616704 10.050000
17858 4 -13.304705 1.902802 10.050000
17859 4 -12.457644 4.734801 10.050000
17860 4 -12.054560 4.020899 10.050000
17861 4 -11.207498 6.852898 10.050000
17862 4 -10.804414 6.138996 10.050000
17863 4 -9.957353 8.970996 10.050000
17864 4 -9.554268 8.257093 10.050000
17865 4 -8.707207 11.089093 10.050000
17866 4 -8.304123 10.375191 10.050000
17867 4 -7.457061 13.207190 10.050000
17868 4 -7.053977 12.493288 10.050000
17869 4 -6.206916 15.325287 10.050000
17870 4 -5.803831 14.611385 10.050000
17871 4 -4.956770 17.443385 10.050000
17872 4 -4.553686 16.729482 10.050000
17873 4 -3.706624 19.561482 10.050000
17874 4 -3.303540 18.847580 10.050000
17875 4 -2.456479 21.679579 10.050000
17876 4 -2.053394 20.965677 10.050000
17877 4 -1.206333 23.797676 10.050000
17878 4 -0.803249 23.083774 10.050000
17879 4 0.043812 25.915773 10.050000
17880 4 0.446897 25.201871 10.050000
17881 4 1.293958 28.033871 10.050000
17882 4 1.697042 27.319969 10.050000
17883 4 2.544104 30.151968 10.050000
17884 4 2.947188 29.438066 10.050000
17885 4 3.794249 32.270065 10.050000
17886 4 4.197334 31.556163 10.050000
17887 4 5.044395 34.388162 10.050000
17888 4 5.447479 33.674260 10.050000
17889 4 6.294541 36.506260 10.050000
17890 4 6.697625 35.792357 10.050000
17891 4 7.544686 38.624357 10.050000
17892 4 7.947771 37.910455 10.050000
17893 4 8.794832 40.742454 10.050000
17894 4 9.197916 40.028552 10.050000
17895 4 10.044977 42.860551 10.050000
17896 4 10.448062 42.146649 10.050000
17897 4 11.295123 44.978649 10.050000
17898 4 11.698208 44.264746 10.050000
17899 4 12.545269 47.096746 10.050000
17900 4 12.948353 46.382844 10.050000
17901 4 13.795414 49.214843 10.050000
17902 4 14.198499 48.500941 10.050000
17903 4 15.045560 51.332940 10.050000
17904 4 15.448644 50.619038 10.050000
17905 4 16.295706 53.451038 10.050000
17906 4 16.698790 52.737135 10.050000
17907 4 17.545851 55.569135 10.050000
17908 4 17.948936 54.855233 10.050000
17909 4 18.795997 57.687232 10.050000
17910 4 19.199081 56.973330 10.050000
17911 4 -46.252468 -56.713628 10.050000
17912 4 -45.849384 -57.427530 10.050000
17913 4 -45.002323 -54.595531 10.050000
17914 4 -44.599238 -55.309433 10.050000
17915 4 -43.752177 -52.477433 10.050000
17916 4 -43.349093 -53.191336 10.050000
17917 4 -42.502032 -50.359336 10.050000
17918 4 -42.098947 -51.073238 10.050000
17919 4 -41.251886 -48.241239 10.050000
17920 4 -40.848802 -48.955141 10.050000
17921 4 -40.001740 -46.123142 10.050000
17922 4 -39.598656 -46.837044 10.050000
17923 4 -38.751595 -44.005045 10.050000
17924 4 -38.348510 -44.718947 10.050000
17925 4 -37.501449 -41.886947 10.050000
17926 4 -37.098365 -42.600849 10.050000
17927 4 -36.251303 -39.768850 10.050000
17928 4 -35.848219 -40.482752 10.050000
17929 4 -35.001158 -37.650753 10.050000
17930 4 -34.598073 -38.364655 10.050000
17931 4 -33.751012 -35.532656 10.050000
17932 4 -33.347928 -36.246558 10.050000
17933 4 -32.500866 -33.414558 10.050000
17934 4 -32.097782 -34.128461 10.050000
17935 4 -31.250721 -31.296461 10.050000
17936 4 -30.847636 -32.010363 10.050000
17937 4 -30.000575 -29.178364 10.050000
17938 4 -29.597491 -29.892266 10.050000
17939 4 -28.750430 -27.060267 10.050000
17940 4 -28.347345 -27.774169 10.050000
17941 4 -27.500284 -24.942169 10.050000
17942 4 -27.097200 -25.656072 10.050000
17943 4 -26.250138 -22.824072 10.050000
17944 4 -25.847054 -23.537974 10.050000
17945 4 -24.999993 -20.705975 10.050000
17946 4 -24.596908 -21.419877 10.050000
17947 4 -23.749847 -18.587878 10.050000
17948 4 -23.346763 -19.301780 10.050000
17949 4 -22.499701 -16.469781 10.050000
17950 4 -22.096617 -17.183683 10.050000
17951 4 -21.249556 -14.351683 10.050000
17952 4 -20.846471 -15.065585 10.050000
17953 4 -19.999410 -12.233586 10.050000
17954 4 -19.596326 -12.947488 10.050000
17955 4 -18.749265 -10.115489 10.050000
17956 4 -18.346180 -10.829391 10.050000
17957 4 -17.499119 -7.997392 10.050000
17958 4 -17.096034 -8.711294 10.050000
17959 4 -16.248973 -5.879294 10.050000
17960 4 -15.845889 -6.593196 10.050000
17961 4 -14.998828 -3.761197 10.050000
17962 4 -14.595743 -4.475099 10.050000
17963 4 -13.748682 -1.643100 10.050000
17964 4 -13.345598 -2.357002 10.050000
17965 4 -12.498536 0.474997 10.050000
17966 4 -12.095452 -0.238905 10.050000
17967 4 -11.248391 2.593095 10.050000
17968 4 -10.845306 1.879192 10.050000
17969 4 -9.998245 4.711192 10.050000
17970 4 -9.595161 3.997290 10.050000
17971 4 -8.748099 6.829289 10.050000
17972 4 -8.345015 6.115387 10.050000
17973 4 -7.497954 8.947386 10.050000
17974 4 -7.094869 8.233484 10.050000
17975 4 -6.247808 11.065484 10.050000
17976 4 -5.844724 10.351581 10.050000
17977 4 -4.997663 13.183581 10.050000
17978 4 -4.594578 12.469679 10.050000
17979 4 -3.747517 15.301678 10.050000
17980 4 -3.344433 14.587776 10.050000
17981 4 -2.497371 17.419775 10.050000
17982 4 -2.094287 16.705873 10.050000
17983 4 -1.247226 19.537872 10.050000
17984 4 -0.844141 18.823970 10.050000
17985 4 0.002920 21.655970 10.050000
17986 4 0.406004 20.942068 10.050000
17987 4 1.253066 23.774067 10.050000
17988 4 1.656150 23.060165 10.050000
17989 4 2.503211 25.892164 10.050000
17990 4 2.906296 25.178262 10.050000
17991 4 3.753357 28.010261 10.050000
17992 4 4.156441 27.296359 10.050000
17993 4 5.003503 30.128359 10.050000
17994 4 5.406587 29.414457 10.050000
17995 4 6.253648 32.246456 10.050000
17996 4 6.656733 31.532554 10.050000
17997 4 7.503794 34.364553 10.050000
17998 4 7.906878 33.650651 10.050000
17999 4 8.753939 36.482650 10.050000
18000 4 9.157024 35.768748 10.050000
18001 4 10.004085 38.600748 10.050000
18002 4 10.407169 37.886845 10.050000
18003 4 11.254231 40.718845 10.050000
18004 4 11.657315 40.004943 10.050000
18005 4 12.504376 42.836942 10.050000
18006 4 12.907461 42.123040 10.050000
18007 4 13.754522 44.955039 10.050000
18008 4 14.157606 44.241137 10.050000
18009 4 15.004668 47.073137 10.050000
18010 4 15.407752 46.359234 10.050000
18011 4 16.254813 49.191234 10.050000
18012 4 16.657898 48.477332 10.050000
18013 4 17.504959 51.309331 10.050000
18014 4 17.908043 50.595429 10.050000
18015 4 18.755104 53.427428 10.050000
18016 4 19.158189 52.713526 10.050000
18017 4 20.005250 55.545525 10.050000
18018 4 20.408335 54.831623 10.050000
18019 4 21.255396 57.663623 10.050000
18020 4 21.658480 56.949721 10.050000
18021 4 -43.793070 -56.737237 10.050000
18022 4 -43.389985 -57.451139 10.050000
18023 4 -42.542924 -54.619140 10.050000
18024 4 -42.139840 -55.333042 10.050000
18025 4 -41.292778 -52.501043 10.050000
18026 4 -40.889694 -53.214945 10.050000
18027 4 -40.042633 -50.382946 10.050000
18028 4 -39.639548 -51.096848 10.050000
18029 4 -38.792487 -48.264848 10.050000
18030 4 -38.389403 -48.978750 10.050000
18031 4 -37.542341 -46.146751 10.050000
18032 4 -37.139257 -46.860653 10.050000
18033 4 -36.292196 -44.028654 10.050000
18034 4 -35.889111 -44.742556 10.050000
18035 4 -35.042050 -41.910557 10.050000
18036 4 -34.638966 -42.624459 10.050000
18037 4 -33.791905 -39.792459 10.050000
18038 4 -33.388820 -40.506362 10.050000
18039 4 -32.541759 -37.674362 10.050000
18040 4 -32.138675 -38.388264 10.050000
18041 4 -31.291613 -35.556265 10.050000
18042 4 -30.888529 -36.270167 10.050000
18043 4 -30.041468 -33.438168 10.050000
18044 4 -29.638383 -34.152070 10.050000
18045 4 -28.791322 -31.320070 10.050000
18046 4 -28.388238 -32.033973 10.050000
18047 4 -27.541176 -29.201973 10.050000
18048 4 -27.138092 -29.915875 10.050000
18049 4 -26.291031 -27.083876 10.050000
18050 4 -25.887946 -27.797778 10.050000
18051 4 -25.040885 -24.965779 10.050000
18052 4 -24.637801 -25.679681 10.050000
18053 4 -23.790739 -22.847681 10.050000
18054 4 -23.387655 -23.561584 10.050000
18055 4 -22.540594 -20.729584 10.050000
18056 4 -22.137509 -21.443486 10.050000
18057 4 -21.290448 -18.611487 10.050000
18058 4 -20.887364 -19.325389 10.050000
18059 4 -20.040303 -16.493390 10.050000
18060 4 -19.637218 -17.207292 10.050000
18061 4 -18.790157 -14.375293 10.050000
18062 4 -18.387073 -15.089195 10.050000
18063 4 -17.540011 -12.257195 10.050000
18064 4 -17.136927 -12.971097 10.050000
18065 4 -16.289866 -10.139098 10.050000
18066 4 -15.886781 -10.853000 10.050000
18067 4 -15.039720 -8.021001 10.050000
18068 4 -14.636636 -8.734903 10.050000
18069 4 -13.789574 -5.902904 10.050000
18070 4 -13.386490 -6.616806 10.050000
18071 4 -12.539429 -3.784806 10.050000
18072 4 -12.136344 -4.498709 10.050000
18073 4 -11.289283 -1.666709 10.050000
18074 4 -10.886199 -2.380611 10.050000
18075 4 -10.039138 0.451388 10.050000
18076 4 -9.636053 -0.262514 10.050000
18077 4 -8.788992 2.569485 10.050000
18078 4 -8.385907 1.855583 10.050000
18079 4 -7.538846 4.687583 10.050000
18080 4 -7.135762 3.973680 10.050000
18081 4 -6.288701 6.805680 10.050000
18082 4 -5.885616 6.091778 10.050000
18083 4 -5.038555 8.923777 10.050000
18084 4 -4.635471 8.209875 10.050000
18085 4 -3.788409 11.041874 10.050000
18086 4 -3.385325 10.327972 10.050000
18087 4 -2.538264 13.159972 10.050000
18088 4 -2.135179 12.446069 10.050000
18089 4 -1.288118 15.278069 10.050000
18090 4 -0.885034 14.564167 10.050000
18091 4 -0.037972 17.396166 10.050000
18092 4 0.365112 16.682264 10.050000
18093 4 1.212173 19.514263 10.050000
18094 4 1.615258 18.800361 10.050000
18095 4 2.462319 21.632360 10.050000
18096 4 2.865403 20.918458 10.050000
18097 4 3.712464 23.750458 10.050000
18098 4 4.115549 23.036556 10.050000
18099 4 4.962610 25.868555 10.050000
18100 4 5.365694 25.154653 10.050000
18101 4 6.212756 27.986652 10.050000
18102 4 6.615840 27.272750 10.050000
18103 4 7.462901 30.104749 10.050000
18104 4 7.865986 29.390847 10.050000
18105 4 8.713047 32.222847 10.050000
18106 4 9.116131 31.508944 10.050000
18107 4 9.963193 34.340944 10.050000
18108 4 10.366277 33.627042 10.050000
18109 4 11.213338 36.459041 10.050000
18110 4 11.616423 35.745139 10.050000
18111 4 12.463484 38.577138 10.050000
18112 4 12.866568 37.863236 10.050000
18113 4 13.713630 40.695236 10.050000
18114 4 14.116714 39.981333 10.050000
18115 4 14.963775 42.813333 10.050000
18116 4 15.366860 42.099431 10.050000
18117 4 16.213921 44.931430 10.050000
18118 4 16.617005 44.217528 10.050000
18119 4 17.464066 47.049527 10.050000
18120 4 17.867151 46.335625 10.050000
18121 4 18.714212 49.167625 10.050000
18122 4 19.117296 48.453722 10.050000
18123 4 19.964358 51.285722 10.050000
18124 4 20.367442 50.571820 10.050000
18125 4 21.214503 53.403819 10.050000
18126 4 21.617588 52.689917 10.050000
18127 4 22.464649 55.521916 10.050000
18128 4 22.867733 54.808014 10.050000
18129 4 23.714795 57.640013 10.050000
18130 4 24.117879 56.926111 10.050000
18131 4 -41.333671 -56.760846 10.050000
18132 4 -40.930586 -57.474749 10.050000
18133 4 -40.083525 -54.642749 10.050000
18134 4 -39.680441 -55.356651 10.050000
18135 4 -38.833380 -52.524652 10.050000
18136 4 -38.430295 -53.238554 10.050000
18137 4 -37.583234 -50.406555 10.050000
18138 4 -37.180149 -51.120457 10.050000
18139 4 -36.333088 -48.288458 10.050000
18140 4 -35.930004 -49.002360 10.050000
18141 4 -35.082943 -46.170360 10.050000
18142 4 -34.679858 -46.884262 10.050000
18143 4 -33.832797 -44.052263 10.050000
18144 4 -33.429713 -44.766165 10.050000
18145 4 -32.582651 -41.934166 10.050000
18146 4 -32.179567 -42.648068 10.050000
18147 4 -31.332506 -39.816069 10.050000
18148 4 -30.929421 -40.529971 10.050000
18149 4 -30.082360 -37.697971 10.050000
18150 4 -29.679276 -38.411874 10.050000
18151 4 -28.832214 -35.579874 10.050000
18152 4 -28.429130 -36.293776 10.050000
18153 4 -27.582069 -33.461777 10.050000
18154 4 -27.178984 -34.175679 10.050000
18155 4 -26.331923 -31.343680 10.050000
18156 4 -25.928839 -32.057582 10.050000
18157 4 -25.081778 -29.225582 10.050000
18158 4 -24.678693 -29.939485 10.050000
18159 4 -23.831632 -27.107485 10.050000
18160 4 -23.428548 -27.821387 10.050000
18161 4 -22.581486 -24.989388 10.050000
18162 4 -22.178402 -25.703290 10.050000
18163 4 -21.331341 -22.871291 10.050000
18164 4 -20.928256 -23.585193 10.050000
18165 4 -20.081195 -20.753193 10.050000
18166 4 -19.678111 -21.467096 10.050000
18167 4 -18.831049 -18.635096 10.050000
18168 4 -18.427965 -19.348998 10.050000
18169 4 -17.580904 -16.516999 10.050000
18170 4 -17.177819 -17.230901 10.050000
18171 4 -16.330758 -14.398902 10.050000
18172 4 -15.927674 -15.112804 10.050000
18173 4 -15.080612 -12.280805 10.050000
18174 4 -14.677528 -12.994707 10.050000
18175 4 -13.830467 -10.162707 10.050000
18176 4 -13.427382 -10.876609 10.050000
18177 4 -12.580321 -8.044610 10.050000
18178 4 -12.177237 -8.758512 10.050000
18179 4 -11.330176 -5.926513 10.050000
18180 4 -10.927091 -6.640415 10.050000
18181 4 -10.080030 -3.808416 10.050000
18182 4 -9.676946 -4.522318 10.050000
18183 4 -8.829884 -1.690318 10.050000
18184 4 -8.426800 -2.404221 10.050000
18185 4 -7.579739 0.427779 10.050000
18186 4 -7.176654 -0.286123 10.050000
18187 4 -6.329593 2.545876 10.050000
18188 4 -5.926509 1.831974 10.050000
18189 4 -5.079447 4.663973 10.050000
18190 4 -4.676363 3.950071 10.050000
18191 4 -3.829302 6.782071 10.050000
18192 4 -3.426217 6.068168 10.050000
18193 4 -2.579156 8.900168 10.050000
18194 4 -2.176072 8.186266 10.050000
18195 4 -1.329011 11.018265 10.050000
18196 4 -0.925926 10.304363 10.050000
18197 4 -0.078865 13.136362 10.050000
18198 4 0.324220 12.422460 10.050000
18199 4 1.171281 15.254460 10.050000
18200 4 1.574365 14.540557 10.050000
18201 4 2.421426 17.372557 10.050000
18202 4 2.824511 16.658655 10.050000
18203 4 3.671572 19.490654 10.050000
18204 4 4.074656 18.776752 10.050000
18205 4 4.921718 21.608751 10.050000
18206 4 5.324802 20.894849 10.050000
18207 4 6.171863 23.726848 10.050000
18208 4 6.574948 23.012946 10.050000
18209 4 7.422009 25.844946 10.050000
18210 4 7.825093 25.131044 10.050000
18211 4 8.672155 27.963043 10.050000
18212 4 9.075239 27.249141 10.050000
18213 4 9.922300 30.081140 10.050000
18214 4 10.325385 29.367238 10.050000
18215 4 11.172446 32.199237 10.050000
18216 4 11.575530 31.485335 10.050000
18217 4 12.422591 34.317335 10.050000
18218 4 12.825676 33.603432 10.050000
18219 4 13.672737 36.435432 10.050000
18220 4 14.075821 35.721530 10.050000
18221 4 14.922883 38.553529 10.050000
18222 4 15.325967 37.839627 10.050000
18223 4 16.173028 40.671626 10.050000
18224 4 16.576113 39.957724 10.050000
18225 4 17.423174 42.789724 10.050000
18226 4 17.826258 42.075821 10.050000
18227 4 18.673320 44.907821 10.050000
18228 4 19.076404 44.193919 10.050000
18229 4 19.923465 47.025918 10.050000
18230 4 20.326550 46.312016 10.050000
18231 4 21.173611 49.144015 10.050000
18232 4 21.576695 48.430113 10.050000
18233 4 22.423757 51.262112 10.050000
18234 4 22.826841 50.548210 10.050000
18235 4 23.673902 53.380210 10.050000
18236 4 24.076987 52.666308 10.050000
18237 4 24.924048 55.498307 10.050000
18238 4 25.327132 54.784405 10.050000
18239 4 26.174193 57.616404 10.050000
18240 4 26.577278 56.902502 10.050000
18241 4 -38.874272 -56.784456 10.050000
18242 4 -38.471188 -57.498358 10.050000
18243 4 -37.624126 -54.666359 10.050000
18244 4 -37.221042 -55.380261 10.050000
18245 4 -36.373981 -52.548261 10.050000
18246 4 -35.970896 -53.262163 10.050000
18247 4 -35.123835 -50.430164 10.050000
18248 4 -34.720751 -51.144066 10.050000
18249 4 -33.873689 -48.312067 10.050000
18250 4 -33.470605 -49.025969 10.050000
18251 4 -32.623544 -46.193970 10.050000
18252 4 -32.220459 -46.907872 10.050000
18253 4 -31.373398 -44.075872 10.050000
18254 4 -30.970314 -44.789774 10.050000
18255 4 -30.123253 -41.957775 10.050000
18256 4 -29.720168 -42.671677 10.050000
18257 4 -28.873107 -39.839678 10.050000
18258 4 -28.470022 -40.553580 10.050000
18259 4 -27.622961 -37.721581 10.050000
18260 4 -27.219877 -38.435483 10.050000
18261 4 -26.372816 -35.603483 10.050000
18262 4 -25.969731 -36.317386 10.050000
18263 4 -25.122670 -33.485386 10.050000
18264 4 -24.719586 -34.199288 10.050000
18265 4 -23.872524 -31.367289 10.050000
18266 4 -23.469440 -32.081191 10.050000
18267 4 -22.622379 -29.249192 10.050000
18268 4 -22.219294 -29.963094 10.050000
18269 4 -21.372233 -27.131094 10.050000
18270 4 -20.969149 -27.844997 10.050000
18271 4 -20.122087 -25.012997 10.050000
18272 4 -19.719003 -25.726899 10.050000
18273 4 -18.871942 -22.894900 10.050000
18274 4 -18.468857 -23.608802 10.050000
18275 4 -17.621796 -20.776803 10.050000
18276 4 -17.218712 -21.490705 10.050000
18277 4 -16.371651 -18.658706 10.050000
18278 4 -15.968566 -19.372608 10.050000
18279 4 -15.121505 -16.540608 10.050000
18280 4 -14.718421 -17.254510 10.050000
18281 4 -13.871359 -14.422511 10.050000
18282 4 -13.468275 -15.136413 10.050000
18283 4 -12.621214 -12.304414 10.050000
18284 4 -12.218129 -13.018316 10.050000
18285 4 -11.371068 -10.186317 10.050000
18286 4 -10.967984 -10.900219 10.050000
18287 4 -10.120922 -8.068219 10.050000
18288 4 -9.717838 -8.782122 10.050000
18289 4 -8.870777 -5.950122 10.050000
18290 4 -8.467692 -6.664024 10.050000
18291 4 -7.620631 -3.832025 10.050000
18292 4 -7.217547 -4.545927 10.050000
18293 4 -6.370485 -1.713928 10.050000
18294 4 -5.967401 -2.427830 10.050000
18295 4 -5.120340 0.404170 10.050000
18296 4 -4.717255 -0.309733 10.050000
18297 4 -3.870194 2.522267 10.050000
18298 4 -3.467110 1.808365 10.050000
18299 4 -2.620049 4.640364 10.050000
18300 4 -2.216964 3.926462 10.050000
18301 4 -1.369903 6.758461 10.050000
18302 4 -0.966819 6.044559 10.050000
18303 4 -0.119757 8.876559 10.050000
18304 4 0.283327 8.162656 10.050000
18305 4 1.130388 10.994656 10.050000
18306 4 1.533473 10.280754 10.050000
18307 4 2.380534 13.112753 10.050000
18308 4 2.783618 12.398851 10.050000
18309 4 3.630680 15.230850 10.050000
18310 4 4.033764 14.516948 10.050000
18311 4 4.880825 17.348947 10.050000
18312 4 5.283910 16.635045 10.050000
18313 4 6.130971 19.467045 10.050000
18314 4 6.534055 18.753143 10.050000
18315 4 7.381116 21.585142 10.050000
18316 4 7.784201 20.871240 10.050000
18317 4 8.631262 23.703239 10.050000
18318 4 9.034347 22.989337 10.050000
18319 4 9.881408 25.821336 10.050000
18320 4 10.284492 25.107434 10.050000
18321 4 11.131553 27.939434 10.050000
18322 4 11.534638 27.225531 10.050000
18323 4 12.381699 30.057531 10.050000
18324 4 12.784783 29.343629 10.050000
18325 4 13.631845 32.175628 10.050000
18326 4 14.034929 31.461726 10.050000
18327 4 14.881990 34.293725 10.050000
18328 4 15.285075 33.579823 10.050000
18329 4 16.132136 36.411823 10.050000
18330 4 16.535220 35.697920 10.050000
18331 4 17.382282 38.529920 10.050000
18332 4 17.785366 37.816018 10.050000
18333 4 18.632427 40.648017 10.050000
18334 4 19.035512 39.934115 10.050000
18335 4 19.882573 42.766114 10.050000
18336 4 20.285657 42.052212 10.050000
18337 4 21.132718 44.884212 10.050000
18338 4 21.535803 44.170309 10.050000
18339 4 22.382864 47.002309 10.050000
18340 4 22.785948 46.288407 10.050000
18341 4 23.633010 49.120406 10.050000
18342 4 24.036094 48.406504 10.050000
18343 4 24.883155 51.238503 10.050000
18344 4 25.286240 50.524601 10.050000
18345 4 26.133301 53.356600 10.050000
18346 4 26.536385 52.642698 10.050000
18347 4 27.383447 55.474698 10.050000
18348 4 27.786531 54.760796 10.050000
18349 4 28.633592 57.592795 10.050000
18350 4 29.036677 56.878893 10.050000
18351 4 -36.414873 -56.808065 10.050000
18352 4 -36.011789 -57.521967 10.050000
18353 4 -35.164727 -54.689968 10.050000
18354 4 -34.761643 -55.403870 10.050000
18355 4 -33.914582 -52.571871 10.050000
18356 4 -33.511497 -53.285773 10.050000
18357 4 -32.664436 -50.453773 10.050000
18358 4 -32.261352 -51.167675 10.050000
18359 4 -31.414291 -48.335676 10.050000
18360 4 -31.011206 -49.049578 10.050000
18361 4 -30.164145 -46.217579 10.050000
18362 4 -29.761061 -46.931481 10.050000
18363 4 -28.913999 -44.099482 10.050000
18364 4 -28.510915 -44.813384 10.050000
18365 4 -27.663854 -41.981384 10.050000
18366 4 -27.260769 -42.695287 10.050000
18367 4 -26.413708 -39.863287 10.050000
18368 4 -26.010624 -40.577189 10.050000
18369 4 -25.163562 -37.745190 10.050000
18370 4 -24.760478 -38.459092 10.050000
18371 4 -23.913417 -35.627093 10.050000
18372 4 -23.510332 -36.340995 10.050000
18373 4 -22.663271 -33.508995 10.050000
18374 4 -22.260187 -34.222898 10.050000
18375 4 -21.413126 -31.390898 10.050000
18376 4 -21.010041 -32.104800 10.050000
18377 4 -20.162980 -29.272801 10.050000
18378 4 -19.759895 -29.986703 10.050000
18379 4 -18.912834 -27.154704 10.050000
18380 4 -18.509750 -27.868606 10.050000
18381 4 -17.662689 -25.036606 10.050000
18382 4 -17.259604 -25.750509 10.050000
18383 4 -16.412543 -22.918509 10.050000
18384 4 -16.009459 -23.632411 10.050000
18385 4 -15.162397 -20.800412 10.050000
18386 4 -14.759313 -21.514314 10.050000
18387 4 -13.912252 -18.682315 10.050000
18388 4 -13.509167 -19.396217 10.050000
18389 4 -12.662106 -16.564218 10.050000
18390 4 -12.259022 -17.278120 10.050000
18391 4 -11.411960 -14.446120 10.050000
18392 4 -11.008876 -15.160022 10.050000
18393 4 -10.161815 -12.328023 10.050000
18394 4 -9.758730 -13.041925 10.050000
18395 4 -8.911669 -10.209926 10.050000
18396 4 -8.508585 -10.923828 10.050000
18397 4 -7.661524 -8.091829 10.050000
18398 4 -7.258439 -8.805731 10.050000
18399 4 -6.411378 -5.973731 10.050000
18400 4 -6.008294 -6.687634 10.050000
18401 4 -5.161232 -3.855634 10.050000
18402 4 -4.758148 -4.569536 10.050000
18403 4 -3.911087 -1.737537 10.050000
18404 4 -3.508002 -2.451439 10.050000
18405 4 -2.660941 0.380560 10.050000
18406 4 -2.257857 -0.333342 10.050000
18407 4 -1.410795 2.498658 10.050000
18408 4 -1.007711 1.784755 10.050000
18409 4 -0.160650 4.616755 10.050000
18410 4 0.242435 3.902853 10.050000
18411 4 1.089496 6.734852 10.050000
18412 4 1.492580 6.020950 10.050000
18413 4 2.339642 8.852949 10.050000
18414 4 2.742726 8.139047 10.050000
18415 4 3.589787 10.971047 10.050000
18416 4 3.992872 10.257144 10.050000
18417 4 4.839933 13.089144 10.050000
18418 4 5.243017 12.375242 10.050000
18419 4 6.090078 15.207241 10.050000
18420 4 6.493163 14.493339 10.050000
18421 4 7.340224 17.325338 10.050000
18422 4 7.743308 16.611436 10.050000
18423 4 8.590370 19.443435 10.050000
18424 4 8.993454 18.729533 10.050000
18425 4 9.840515 21.561533 10.050000
18426 4 10.243600 20.847631 10.050000
18427 4 11.090661 23.679630 10.050000
18428 4 11.493745 22.965728 10.050000
18429 4 12.340807 25.797727 10.050000
18430 4 12.743891 25.083825 10.050000
18431 4 13.590952 27.915824 10.050000
18432 4 13.994037 27.201922 10.050000
18433 4 14.841098 30.033922 10.050000
18434 4 15.244182 29.320019 10.050000
18435 4 16.091243 32.152019 10.050000
18436 4 16.494328 31.438117 10.050000
18437 4 17.341389 34.270116 10.050000
18438 4 17.744473 33.556214 10.050000
18439 4 18.591535 36.388213 10.050000
18440 4 18.994619 35.674311 10.050000
18441 4 19.841680 38.506311 10.050000
18442 4 20.244765 37.792408 10.050000
18443 4 21.091826 40.624408 10.050000
18444 4 21.494910 39.910506 10.050000
18445 4 22.341972 42.742505 10.050000
18446 4 22.745056 42.028603 10.050000
18447 4 23.592117 44.860602 10.050000
18448 4 23.995202 44.146700 10.050000
18449 4 24.842263 46.978700 10.050000
18450 4 25.245347 46.264797 10.050000
18451 4 26.092409 49.096797 10.050000
18452 4 26.495493 48.382895 10.050000
18453 4 27.342554 51.214894 10.050000
18454 4 27.745639 50.500992 10.050000
18455 4 28.592700 53.332991 10.050000
18456 4 28.995784 52.619089 10.050000
18457 4 29.842845 55.451088 10.050000
18458 4 30.245930 54.737186 10.050000
18459 4 31.092991 57.569186 10.050000
18460 4 31.496075 56.855284 10.050000
18461 4 -33.955474 -56.831674 10.050000
18462 4 -33.552390 -57.545576 10.050000
18463 4 -32.705329 -54.713577 10.050000
18464 4 -32.302244 -55.427479 10.050000
18465 4 -31.455183 -52.595480 10.050000
18466 4 -31.052099 -53.309382 10.050000
18467 4 -30.205037 -50.477383 10.050000
18468 4 -29.801953 -51.191285 10.050000
18469 4 -28.954892 -48.359285 10.050000
18470 4 -28.551807 -49.073187 10.050000
18471 4 -27.704746 -46.241188 10.050000
18472 4 -27.301662 -46.955090 10.050000
18473 4 -26.454600 -44.123091 10.050000
18474 4 -26.051516 -44.836993 10.050000
18475 4 -25.204455 -42.004994 10.050000
18476 4 -24.801370 -42.718896 10.050000
18477 4 -23.954309 -39.886896 10.050000
18478 4 -23.551225 -40.600799 10.050000
18479 4 -22.704164 -37.768799 10.050000
18480 4 -22.301079 -38.482701 10.050000
18481 4 -21.454018 -35.650702 10.050000
18482 4 -21.050934 -36.364604 10.050000
18483 4 -20.203872 -33.532605 10.050000
18484 4 -19.800788 -34.246507 10.050000
18485 4 -18.953727 -31.414507 10.050000
18486 4 -18.550642 -32.128410 10.050000
18487 4 -17.703581 -29.296410 10.050000
18488 4 -17.300497 -30.010312 10.050000
18489 4 -16.453435 -27.178313 10.050000
18490 4 -16.050351 -27.892215 10.050000
18491 4 -15.203290 -25.060216 10.050000
18492 4 -14.800205 -25.774118 10.050000
18493 4 -13.953144 -22.942119 10.050000
18494 4 -13.550060 -23.656021 10.050000
18495 4 -12.702999 -20.824021 10.050000
18496 4 -12.299914 -21.537923 10.050000
18497 4 -11.452853 -18.705924 10.050000
18498 4 -11.049768 -19.419826 10.050000
18499 4 -10.202707 -16.587827 10.050000
18500 4 -9.799623 -17.301729 10.050000
18501 4 -8.952562 -14.469730 10.050000
18502 4 -8.549477 -15.183632 10.050000
18503 4 -7.702416 -12.351632 10.050000
18504 4 -7.299332 -13.065534 10.050000
18505 4 -6.452270 -10.233535 10.050000
18506 4 -6.049186 -10.947437 10.050000
18507 4 -5.202125 -8.115438 10.050000
18508 4 -4.799040 -8.829340 10.050000
18509 4 -3.951979 -5.997341 10.050000
18510 4 -3.548895 -6.711243 10.050000
18511 4 -2.701833 -3.879243 10.050000
18512 4 -2.298749 -4.593146 10.050000
18513 4 -1.451688 -1.761146 10.050000
18514 4 -1.048603 -2.475048 10.050000
18515 4 -0.201542 0.356951 10.050000
18516 4 0.201542 -0.356951 10.050000
18517 4 1.048603 2.475048 10.050000
18518 4 1.451688 1.761146 10.050000
18519 4 2.298749 4.593146 10.050000
18520 4 2.701833 3.879243 10.050000
18521 4 3.548895 6.711243 10.050000
18522 4 3.951979 5.997341 10.050000
18523 4 4.799040 8.829340 10.050000
18524 4 5.202125 8.115438 10.050000
18525 4 6.049186 10.947437 10.050000
18526 4 6.452270 10.233535 10.050000
18527 4 7.299332 13.065534 10.050000
18528 4 7.702416 12.351632 10.050000
18529 4 8.549477 15.183632 10.050000
18530 4 8.952562 14.469730 10.050000
18531 4 9.799623 17.301729 10.050000
18532 4 10.202707 16.587827 10.050000
18533 4 11.049768 19.419826 10.050000
18534 4 11.452853 18.705924 10.050000
18535 4 12.299914 21.537923 10.050000
18536 4 12.702999 20.824021 10.050000
18537 4 13.550060 23.656021 10.050000
18538 4 13.953144 22.942119 10.050000
18539 4 14.800205 25.774118 10.050000
18540 4 15.203290 25.060216 10.050000
18541 4 16.050351 27.892215 10.050000
18542 4 16.453435 27.178313 10.050000
18543 4 17.300497 30.010312 10.050000
18544 4 17.703581 29.296410 10.050000
18545 4 18.550642 32.128410 10.050000
18546 4 18.953727 31.414507 10.050000
18547 4 19.800788 34.246507 10.050000
18548 4 20.203872 33.532605 10.050000
18549 4 21.050934 36.364604 10.050000
18550 4 21.454018 35.650702 10.050000
18551 4 22.301079 38.482701 10.050000
18552 4 22.704164 37.768799 10.050000
18553 4 23.551225 40.600799 10.050000
18554 4 23.954309 39.886896 10.050000
18555 4 24.801370 42.718896 10.050000
18556 4 25.204455 42.004994 10.050000
18557 4 26.051516 44.836993 10.050000
18558 4 26.454600 44.123091 10.050000
18559 4 27.301662 46.955090 10.050000
18560 4 27.704746 46.241188 10.050000
18561 4 28.551807 49.073187 10.050000
18562 4 28.954892 48.359285 10.050000
18563 4 29.801953 51.191285 10.050000
18564 4 30.205037 50.477383 10.050000
18565 4 31.052099 53.309382 10.050000
18566 4 31.455183 52.595480 10.050000
18567 4 32.302244 55.427479 10.050000
18568 4 32.705329 54.713577 10.050000
18569 4 33.552390 57.545576 10.050000
18570 4 33.955474 56.831674 10.050000
18571 4 -31.496075 -56.855284 10.050000
18572 4 -31.092991 -57.569186 10.050000
18573 4 -30.245930 -54.737186 10.050000
18574 4 -29.842845 -55.451088 10.050000
18575 4 -28.995784 -52.619089 10.050000
18576 4 -28.592700 -53.332991 10.050000
18577 4 -27.745639 -50.500992 10.050000
18578 4 -27.342554 -51.214894 10.050000
18579 4 -26.495493 -48.382895 10.050000
18580 4 -26.092409 -49.096797 10.050000
18581 4 -25.245347 -46.264797 10.050000
18582 4 -24.842263 -46.978700 10.050000
18583 4 -23.995202 -44.146700 10.050000
18584 4 -23.592117 -44.860602 10.050000
18585 4 -22.745056 -42.028603 10.050000
18586 4 -22.341972 -42.742505 10.050000
18587 4 -21.494910 -39.910506 10.050000
18588 4 -21.091826 -40.624408 10.050000
18589 4 -20.244765 -37.792408 10.050000
18590 4 -19.841680 -38.506311 10.050000
18591 4 -18.994619 -35.674311 10.050000
18592 4 -18.591535 -36.388213 10.050000
18593 4 -17.744473 -33.556214 10.050000
18594 4 -17.341389 -34.270116 10.050000
18595 4 -16.494328 -31.438117 10.050000
18596 4 -16.091243 -32.152019 10.050000
18597 4 -15.244182 -29.320019 10.050000
18598 4 -14.841098 -30.033922 10.050000
18599 4 -13.994037 -27.201922 10.050000
18600 4 -13.590952 -27.915824 10.050000
18601 4 -12.743891 -25.083825 10.050000
18602 4 -12.340807 -25.797727 10.050000
18603 4 -11.493745 -22.965728 10.050000
18604 4 -11.090661 -23.679630 10.050000
18605 4 -10.243600 -20.847631 10.050000
18606 4 -9.840515 -21.561533 10.050000
18607 4 -8.993454 -18.729533 10.050000
18608 4 -8.590370 -19.443435 10.050000
18609 4 -7.743308 -16.611436 10.050000
18610 4 -7.340224 -17.325338 10.050000
18611 4 -6.493163 -14.493339 10.050000
18612 4 -6.090078 -15.207241 10.050000
18613 4 -5.243017 -12.375242 10.050000
18614 4 -4.839933 -13.089144 10.050000
18615 4 -3.992872 -10.257144 10.050000
18616 4 -3.589787 -10.971047 10.050000
18617 4 -2.742726 -8.139047 10.050000
18618 4 -2.339642 -8.852949 10.050000
18619 4 -1.492580 -6.020950 10.050000
18620 4 -1.089496 -6.734852 10.050000
18621 4 -0.242435 -3.902853 10.050000
18622 4 0.160650 -4.616755 10.050000
18623 4 1.007711 -1.784755 10.050000
18624 4 1.410795 -2.498658 10.050000
18625 4 2.257857 0.333342 10.050000
18626 4 2.660941 -0.380560 10.050000
18627 4 3.508002 2.451439 10.050000
18628 4 3.911087 1.737537 10.050000
18629 4 4.758148 4.569536 10.050000
18630 4 5.161232 3.855634 10.050000
18631 4 6.008294 6.687634 10.050000
18632 4 6.411378 5.973731 10.050000
18633 4 7.258439 8.805731 10.050000
18634 4 7.661524 8.091829 10.050000
18635 4 8.508585 10.923828 10.050000
18636 4 8.911669 10.209926 10.050000
18637 4 9.758730 13.041925 10.050000
18638 4 10.161815 12.328023 10.050000
18639 4 11.008876 15.160022 10.050000
18640 4 11.411960 14.446120 10.050000
18641 4 12.259022 17.278120 10.050000
18642 4 12.662106 16.564218 10.050000
18643 4 13.509167 19.396217 10.050000
18644 4 13.912252 18.682315 10.050000
18645 4 14.759313 21.514314 10.050000
18646 4 15.162397 20.800412 10.050000
18647 4 16.009459 23.632411 10.050000
18648 4 16.412543 22.918509 10.050000
18649 4 17.259604 25.750509 10.050000
18650 4 17.662689 25.036606 10.050000
18651 4 18.509750 27.868606 10.050000
18652 4 18.912834 27.154704 10.050000
18653 4 19.759895 29.986703 10.050000
18654 4 20.162980 29.272801 10.050000
18655 4 21.010041 32.104800 10.050000
18656 4 21.413126 31.390898 10.050000
18657 4 22.260187 34.222898 10.050000
18658 4 22.663271 33.508995 10.050000
18659 4 23.510332 36.340995 10.050000
18660 4 23.913417 35.627093 10.050000
18661 4 24.760478 38.459092 10.050000
18662 4 25.163562 37.745190 10.050000
18663 4 26.010624 40.577189 10.050000
18664 4 26.413708 39.863287 10.050000
18665 4 27.260769 42.695287 10.050000
18666 4 27.663854 41.981384 10.050000
18667 4 28.510915 44.813384 10.050000
18668 4 28.913999 44.099482 10.050000
18669 4 29.761061 46.931481 10.050000
18670 4 30.164145 46.217579 10.050000
18671 4 31.011206 49.049578 10.050000
18672 4 31.414291 48.335676 10.050000
18673 4 32.261352 51.167675 10.050000
18674 4 32.664436 50.453773 10.050000
18675 4 33.511497 53.285773 10.050000
18676 4 33.914582 52.571871 10.050000
18677 4 34.761643 55.403870 10.050000
18678 4 35.164727 54.689968 10.050000
18679 4 36.011789 57.521967 10.050000
18680 4 36.414873 56.808065 10.050000
18681 4 -29.036677 -56.878893 10.050000
18682 4 -28.633592 -57.592795 10.050000
18683 4 -27.786531 -54.760796 10.050000
18684 4 -27.383447 -55.474698 10.050000
18685 4 -26.536385 -52.642698 10.050000
18686 4 -26.133301 -53.356600 10.050000
18687 4 -25.286240 -50.524601 10.050000
18688 4 -24.883155 -51.238503 10.050000
18689 4 -24.036094 -48.406504 10.050000
18690 4 -23.633010 -49.120406 10.050000
18691 4 -22.785948 -46.288407 10.050000
18692 4 -22.382864 -47.002309 10.050000
18693 4 -21.535803 -44.170309 10.050000
18694 4 -21.132718 -44.884212 10.050000
18695 4 -20.285657 -42.052212 10.050000
18696 4 -19.882573 -42.766114 10.050000
18697 4 -19.035512 -39.934115 10.050000
18698 4 -18.632427 -40.648017 10.050000
18699 4 -17.785366 -37.816018 10.050000
18700 4 -17.382282 -38.529920 10.050000
18701 4 -16.535220 -35.697920 10.050000
18702 4 -16.132136 -36.411823 10.050000
18703 4 -15.285075 -33.579823 10.050000
18704 4 -14.881990 -34.293725 10.050000
18705 4 -14.034929 -31.461726 10.050000
18706 4 -13.631845 -32.175628 10.050000
18707 4 -12.784783 -29.343629 10.050000
18708 4 -12.381699 -30.057531 10.050000
18709 4 -11.534638 -27.225531 10.050000
18710 4 -11.131553 -27.939434 10.050000
18711 4 -10.284492 -25.107434 10.050000
18712 4 -9.881408 -25.821336 10.050000
18713 4 -9.034347 -22.989337 10.050000
18714 4 -8.631262 -23.703239 10.050000
18715 4 -7.784201 -20.871240 10.050000
18716 4 -7.381116 -21.585142 10.050000
18717 4 -6.534055 -18.753143 10.050000
18718 4 -6.130971 -19.467045 10.050000
18719 4 -5.283910 -16.635045 10.050000
18720 4 -4.880825 -17.348947 10.050000
18721 4 -4.033764 -14.516948 10.050000
18722 4 -3.630680 -15.230850 10.050000
18723 4 -2.783618 -12.398851 10.050000
18724 4 -2.380534 -13.112753 10.050000
18725 4 -1.533473 -10.280754 10.050000
18726 4 -1.130388 -10.994656 10.050000
18727 4 -0.283327 -8.162656 10.050000
18728 4 0.119757 -8.876559 10.050000
18729 4 0.966819 -6.044559 10.050000
18730 4 1.369903 -6.758461 10.050000
18731 4 2.216964 -3.926462 10.050000
18732 4 2.620049 -4.640364 10.050000
18733 4 3.467110 -1.808365 10.050000
18734 4 3.870194 -2.522267 10.050000
18735 4 4.717255 0.309733 10.050000
18736 4 5.120340 -0.404170 10.050000
18737 4 5.967401 2.427830 10.050000
18738 4 6.370485 1.713928 10.050000
18739 4 7.217547 4.545927 10.050000
18740 4 7.620631 3.832025 10.050000
18741 4 8.467692 6.664024 10.050000
18742 4 8.870777 5.950122 10.050000
18743 4 9.717838 8.782122 10.050000
18744 4 10.120922 8.068219 10.050000
18745 4 10.967984 10.900219 10.050000
18746 4 11.371068 10.186317 10.050000
18747 4 12.218129 13.018316 10.050000
18748 4 12.621214 12.304414 10.050000
18749 4 13.468275 15.136413 10.050000
18750 4 13.871359 14.422511 10.050000
18751 4 14.718421 17.254510 10.050000
18752 4 15.121505 16.540608 10.050000
18753 4 15.968566 19.372608 10.050000
18754 4 16.371651 18.658706 10.050000
18755 4 17.218712 21.490705 10.050000
18756 4 17.621796 20.776803 10.050000
18757 4 18.468857 23.608802 10.050000
18758 4 18.871942 22.894900 10.050000
18759 4 19.719003 25.726899 10.050000
18760 4 20.122087 25.012997 10.050000
18761 4 20.969149 27.844997 10.050000
18762 4 21.372233 27.131094 10.050000
18763 4 22.219294 29.963094 10.050000
18764 4 22.622379 29.249192 10.050000
18765 4 23.469440 32.081191 10.050000
18766 4 23.872524 31.367289 10.050000
18767 4 24.719586 34.199288 10.050000
18768 4 25.122670 33.485386 10.050000
18769 4 25.969731 36.317386 10.050000
18770 4 26.372816 35.603483 10.050000
18771 4 27.219877 38.435483 10.050000
18772 4 27.622961 37.721581 10.050000
18773 4 28.470022 40.553580 10.050000
18774 4 28.873107 39.839678 10.050000
18775 4 29.720168 42.671677 10.050000
18776 4 30.123253 41.957775 10.050000
18777 4 30.970314 44.789774 10.050000
18778 4 31.373398 44.075872 10.050000
18779 4 32.220459 46.907872 10.050000
18780 4 32.623544 46.193970 10.050000
18781 4 33.470605 49.025969 10.050000
18782 4 33.873689 48.312067 10.050000
18783 4 34.720751 51.144066 10.050000
18784 4 35.123835 50.430164 10.050000
18785 4 35.970896 53.262163 10.050000
18786 4 36.373981 52.548261 10.050000
18787 4 37.221042 55.380261 10.050000
18788 4 37.624126 54.666359 10.050000
18789 4 38.471188 57.498358 10.050000
18790 4 38.874272 56.784456 10.050000
18791 4 -26.577278 -56.902502 10.050000
18792 4 -26.174193 -57.616404 10.050000
18793 4 -25.327132 -54.784405 10.050000
18794 4 -24.924048 -55.498307 10.050000
18795 4 -24.076987 -52.666308 10.050000
18796 4 -23.673902 -53.380210 10.050000
18797 4 -22.826841 -50.548210 10.050000
18798 4 -22.423757 -51.262112 10.050000
18799 4 -21.576695 -48.430113 10.050000
18800 4 -21.173611 -49.144015 10.050000
18801 4 -20.326550 -46.312016 10.050000
18802 4 -19.923465 -47.025918 10.050000
18803 4 -19.076404 -44.193919 10.050000
18804 4 -18.673320 -44.907821 10.050000
18805 4 -17.826258 -42.075821 10.050000
18806 4 -17.423174 -42.789724 10.050000
18807 4 -16.576113 -39.957724 10.050000
18808 4 -16.173028 -40.671626 10.050000
18809 4 -15.325967 -37.839627 10.050000
18810 4 -14.922883 -38.553529 10.050000
18811 4 -14.075821 -35.721530 10.050000
18812 4 -13.672737 -36.435432 10.050000
18813 4 -12.825676 -33.603432 10.050000
18814 4 -12.422591 -34.317335 10.050000
18815 4 -11.575530 -31.485335 10.050000
18816 4 -11.172446 -32.199237 10.050000
18817 4 -10.325385 -29.367238 10.050000
18818 4 -9.922300 -30.081140 10.050000
18819 4 -9.075239 -27.249141 10.050000
18820 4 -8.672155 -27.963043 10.050000
18821 4 -7.825093 -25.131044 10.050000
18822 4 -7.422009 -25.844946 10.050000
18823 4 -6.574948 -23.012946 10.050000
18824 4 -6.171863 -23.726848 10.050000
18825 4 -5.324802 -20.894849 10.050000
18826 4 -4.921718 -21.608751 10.050000
18827 4 -4.074656 -18.776752 10.050000
18828 4 -3.671572 -19.490654 10.050000
18829 4 -2.824511 -16.658655 10.050000
18830 4 -2.421426 -17.372557 10.050000
18831 4 -1.574365 -14.540557 10.050000
18832 4 -1.171281 -15.254460 10.050000
18833 4 -0.324220 -12.422460 10.050000
18834 4 0.078865 -13.136362 10.050000
18835 4 0.925926 -10.304363 10.050000
18836 4 1.329011 -11.018265 10.050000
18837 4 2.176072 -8.186266 10.050000
18838 4 2.579156 -8.900168 10.050000
18839 4 3.426217 -6.068168 10.050000
18840 4 3.829302 -6.782071 10.050000
18841 4 4.676363 -3.950071 10.050000
18842 4 5.079447 -4.663973 10.050000
18843 4 5.926509 -1.831974 10.050000
18844 4 6.329593 -2.545876 10.050000
18845 4 7.176654 0.286123 10.050000
18846 4 7.579739 -0.427779 10.050000
18847 4 8.426800 2.404221 10.050000
18848 4 8.829884 1.690318 10.050000
18849 4 9.676946 4.522318 10.050000
18850 4 10.080030 3.808416 10.050000
18851 4 10.927091 6.640415 10.050000
18852 4 11.330176 5.926513 10.050000
18853 4 12.177237 8.758512 10.050000
18854 4 12.580321 8.044610 10.050000
18855 4 13.427382 10.876609 10.050000
18856 4 13.830467 10.162707 10.050000
18857 4 14.677528 12.994707 10.050000
18858 4 15.080612 12.280805 10.050000
18859 4 15.927674 15.112804 10.050000
18860 4 16.330758 14.398902 10.050000
18861 4 17.177819 17.230901 10.050000
18862 4 17.580904 16.516999 10.050000
18863 4 18.427965 19.348998 10.050000
18864 4 18.831049 18.635096 10.050000
18865 4 19.678111 21.467096 10.050000
18866 4 20.081195 20.753193 10.050000
18867 4 20.928256 23.585193 10.050000
18868 4 21.331341 22.871291 10.050000
18869 4 22.178402 25.703290 10.050000
18870 4 22.581486 24.989388 10.050000
18871 4 23.428548 27.821387 10.050000
18872 4 23.831632 27.107485 10.050000
18873 4 24.678693 29.939485 10.050000
18874 4 25.081778 29.225582 10.050000
18875 4 25.928839 32.057582 10.050000
18876 4 26.331923 31.343680 10.050000
18877 4 27.178984 34.175679 10.050000
18878 4 27.582069 33.461777 10.050000
18879 4 28.429130 36.293776 10.050000
18880 4 28.832214 35.579874 10.050000
18881 4 29.679276 38.411874 10.050000
18882 4 30.082360 37.697971 10.050000
18883 4 30.929421 40.529971 10.050000
18884 4 31.332506 39.816069 10.050000
18885 4 32.179567 42.648068 10.050000
18886 4 32.582651 41.934166 10.050000
18887 4 33.429713 44.766165 10.050000
18888 4 33.832797 44.052263 10.050000
18889 4 34.679858 46.884262 10.050000
18890 4 35.082943 46.170360 10.050000
18891 4 35.930004 49.002360 10.050000
18892 4 36.333088 48.288458 10.050000
18893 4 37.180149 51.120457 10.050000
18894 4 37.583234 50.406555 10.050000
18895 4 38.430295 53.238554 10.050000
18896 4 38.833380 52.524652 10.050000
18897 4 39.680441 55.356651 10.050000
18898 4 40.083525 54.642749 10.050000
18899 4 40.930586 57.474749 10.050000
18900 4 41.333671 56.760846 10.050000
18901 4 -24.117879 -56.926111 10.050000
18902 4 -23.714795 -57.640013 10.050000
18903 4 -22.867733 -54.808014 10.050000
18904 4 -22.464649 -55.521916 10.050000
18905 4 -21.617588 -52.689917 10.050000
18906 4 -21.214503 -53.403819 10.050000
18907 4 -20.367442 -50.571820 10.050000
18908 4 -19.964358 -51.285722 10.050000
18909 4 -19.117296 -48.453722 10.050000
18910 4 -18.714212 -49.167625 10.050000
18911 4 -17.867151 -46.335625 10.050000
18912 4 -17.464066 -47.049527 10.050000
18913 4 -16.617005 -44.217528 10.050000
18914 4 -16.213921 -44.931430 10.050000
18915 4 -15.366860 -42.099431 10.050000
18916 4 -14.963775 -42.813333 10.050000
18917 4 -14.116714 -39.981333 10.050000
18918 4 -13.713630 -40.695236 10.050000
18919 4 -12.866568 -37.863236 10.050000
18920 4 -12.463484 -38.577138 10.050000
18921 4 -11.616423 -35.745139 10.050000
18922 4 -11.213338 -36.459041 10.050000
18923 4 -10.366277 -33.627042 10.050000
18924 4 -9.963193 -34.340944 10.050000
18925 4 -9.116131 -31.508944 10.050000
18926 4 -8.713047 -32.222847 10.050000
18927 4 -7.865986 -29.390847 10.050000
18928 4 -7.462901 -30.104749 10.050000
18929 4 -6.615840 -27.272750 10.050000
18930 4 -6.212756 -27.986652 10.050000
18931 4 -5.365694 -25.154653 10.050000
18932 4 -4.962610 -25.868555 10.050000
18933 4 -4.115549 -23.036556 10.050000
18934 4 -3.712464 -23.750458 10.050000
18935 4 -2.865403 -20.918458 10.050000
18936 4 -2.462319 -21.632360 10.050000
18937 4 -1.615258 -18.800361 10.050000
18938 4 -1.212173 -19.514263 10.050000
18939 4 -0.365112 -16.682264 10.050000
18940 4 0.037972 -17.396166 10.050000
18941 4 0.885034 -14.564167 10.050000
18942 4 1.288118 -15.278069 10.050000
18943 4 2.135179 -12.446069 10.050000
18944 4 2.538264 -13.159972 10.050000
18945 4 3.385325 -10.327972 10.050000
18946 4 3.788409 -11.041874 10.050000
18947 4 4.635471 -8.209875 10.050000
18948 4 5.038555 -8.923777 10.050000
18949 4 5.885616 -6.091778 10.050000
18950 4 6.288701 -6.805680 10.050000
18951 4 7.135762 -3.973680 10.050000
18952 4 7.538846 -4.687583 10.050000
18953 4 8.385907 -1.855583 10.050000
18954 4 8.788992 -2.569485 10.050000
18955 4 9.636053 0.262514 10.050000
18956 4 10.039138 -0.451388 10.050000
18957 4 10.886199 2.380611 10.050000
18958 4 11.289283 1.666709 10.050000
18959 4 12.136344 4.498709 10.050000
18960 4 12.539429 3.784806 10.050000
18961 4 13.386490 6.616806 10.050000
18962 4 13.789574 5.902904 10.050000
18963 4 14.636636 8.734903 10.050000
18964 4 15.039720 8.021001 10.050000
18965 4 15.886781 10.853000 10.050000
18966 4 16.289866 10.139098 10.050000
18967 4 17.136927 12.971097 10.050000
18968 4 17.540011 12.257195 10.050000
18969 4 18.387073 15.089195 10.050000
18970 4 18.790157 14.375293 10.050000
18971 4 19.637218 17.207292 10.050000
18972 4 20.040303 16.493390 10.050000
18973 4 20.887364 19.325389 10.050000
18974 4 21.290448 18.611487 10.050000
18975 4 22.137509 21.443486 10.050000
18976 4 22.540594 20.729584 10.050000
18977 4 23.387655 23.561584 10.050000
18978 4 23.790739 22.847681 10.050000
18979 4 24.637801 25.679681 10.050000
18980 4 25.040885 24.965779 10.050000
18981 4 25.887946 27.797778 10.050000
18982 4 26.291031 27.083876 10.050000
18983 4 27.138092 29.915875 10.050000
18984 4 27.541176 29.201973 10.050000
18985 4 28.388238 32.033973 10.050000
18986 4 28.791322 31.320070 10.050000
18987 4 29.638383 34.152070 10.050000
18988 4 30.041468 33.438168 10.050000
18989 4 30.888529 36.270167 10.050000
18990 4 31.291613 35.556265 10.050000
18991 4 32.138675 38.388264 10.050000
18992 4 32.541759 37.674362 10.050000
18993 4 33.388820 40.506362 10.050000
18994 4 33.791905 39.792459 10.050000
18995 4 34.638966 42.624459 10.050000
18996 4 35.042050 41.910557 10.050000
18997 4 35.889111 44.742556 10.050000
18998 4 36.292196 44.028654 10.050000
18999 4 37.139257 46.860653 10.050000
19000 4 37.542341 46.146751 10.050000
19001 4 38.389403 48.978750 10.050000
19002 4 38.792487 48.264848 10.050000
19003 4 39.639548 51.096848 10.050000
19004 4 40.042633 50.382946 10.050000
19005 4 40.889694 53.214945 10.050000
19006 4 41.292778 52.501043 10.050000
19007 4 42.139840 55.333042 10.050000
19008 4 42.542924 54.619140 10.050000
19009 4 43.389985 57.451139 10.050000
19010 4 43.793070 56.737237 10.050000
19011 4 -21.658480 -56.949721 10.050000
19012 4 -21.255396 -57.663623 10.050000
19013 4 -20.408335 -54.831623 10.050000
19014 4 -20.005250 -55.545525 10.050000
19015 4 -19.158189 -52.713526 10.050000
19016 4 -18.755104 -53.427428 10.050000
19017 4 -17.908043 -50.595429 10.050000
19018 4 -17.504959 -51.309331 10.050000
19019 4 -16.657898 -48.477332 10.050000
19020 4 -16.254813 -49.191234 10.050000
19021 4 -15.407752 -46.359234 10.050000
19022 4 -15.004668 -47.073137 10.050000
19023 4 -14.157606 -44.241137 10.050000
19024 4 -13.754522 -44.955039 10.050000
19025 4 -12.907461 -42.123040 10.050000
19026 4 -12.504376 -42.836942 10.050000
19027 4 -11.657315 -40.004943 10.050000
19028 4 -11.254231 -40.718845 10.050000
19029 4 -10.407169 -37.886845 10.050000
19030 4 -10.004085 -38.600748 10.050000
19031 4 -9.157024 -35.768748 10.050000
19032 4 -8.753939 -36.482650 10.050000
19033 4 -7.906878 -33.650651 10.050000
19034 4 -7.503794 -34.364553 10.050000
19035 4 -6.656733 -31.532554 10.050000
19036 4 -6.253648 -32.246456 10.050000
19037 4 -5.406587 -29.414457 10.050000
19038 4 -5.003503 -30.128359 10.050000
19039 4 -4.156441 -27.296359 10.050000
19040 4 -3.753357 -28.010261 10.050000
19041 4 -2.906296 -25.178262 10.050000
19042 4 -2.503211 -25.892164 10.050000
19043 4 -1.656150 -23.060165 10.050000
19044 4 -1.253066 -23.774067 10.050000
19045 4 -0.406004 -20.942068 10.050000
19046 4 -0.002920 -21.655970 10.050000
19047 4 0.844141 -18.823970 10.050000
19048 4 1.247226 -19.537872 10.050000
19049 4 2.094287 -16.705873 10.050000
19050 4 2.497371 -17.419775 10.050000
19051 4 3.344433 -14.587776 10.050000
19052 4 3.747517 -15.301678 10.050000
19053 4 4.594578 -12.469679 10.050000
19054 4 4.997663 -13.183581 10.050000
19055 4 5.844724 -10.351581 10.050000
19056 4 6.247808 -11.065484 10.050000
19057 4 7.094869 -8.233484 10.050000
19058 4 7.497954 -8.947386 10.050000
19059 4 8.345015 -6.115387 10.050000
19060 4 8.748099 -6.829289 10.050000
19061 4 9.595161 -3.997290 10.050000
19062 4 9.998245 -4.711192 10.050000
19063 4 10.845306 -1.879192 10.050000
19064 4 11.248391 -2.593095 10.050000
19065 4 12.095452 0.238905 10.050000
19066 4 12.498536 -0.474997 10.050000
19067 4 13.345598 2.357002 10.050000
19068 4 13.748682 1.643100 10.050000
19069 4 14.595743 4.475099 10.050000
19070 4 14.998828 3.761197 10.050000
19071 4 15.845889 6.593196 10.050000
19072 4 16.248973 5.879294 10.050000
19073 4 17.096034 8.711294 10.050000
19074 4 17.499119 7.997392 10.050000
19075 4 18.346180 10.829391 10.050000
19076 4 18.749265 10.115489 10.050000
19077 4 19.596326 12.947488 10.050000
19078 4 19.999410 12.233586 10.050000
19079 4 20.846471 15.065585 10.050000
19080 4 21.249556 14.351683 10.050000
19081 4 22.096617 17.183683 10.050000
19082 4 22.499701 16.469781 10.050000
19083 4 23.346763 19.301780 10.050000
19084 4 23.749847 18.587878 10.050000
19085 4 24.596908 21.419877 10.050000
19086 4 24.999993 20.705975 10.050000
19087 4 25.847054 23.537974 10.050000
19088 4 26.250138 22.824072 10.050000
19089 4 27.097200 25.656072 10.050000
19090 4 27.500284 24.942169 10.050000
19091 4 28.347345 27.774169 10.050000
19092 4 28.750430 27.060267 10.050000
19093 4 29.597491 29.892266 10.050000
19094 4 30.000575 29.178364 10.050000
19095 4 30.847636 32.010363 10.050000
19096 4 31.250721 31.296461 10.050000
19097 4 32.097782 34.128461 10.050000
19098 4 32.500866 33.414558 10.050000
19099 4 33.347928 36.246558 10.050000
19100 4 33.751012 35.532656 10.050000
19101 4 34.598073 38.364655 10.050000
19102 4 35.001158 37.650753 10.050000
19103 4 35.848219 40.482752 10.050000
19104 4 36.251303 39.768850 10.050000
19105 4 37.098365 42.600849 10.050000
19106 4 37.501449 41.886947 10.050000
19107 4 38.348510 44.718947 10.050000
19108 4 38.751595 44.005045 10.050000
19109 4 39.598656 46.837044 10.050000
19110 4 40.001740 46.123142 10.050000
19111 4 40.848802 48.955141 10.050000
19112 4 41.251886 48.241239 10.050000
19113 4 42.098947 51.073238 10.050000
19114 4 42.502032 50.359336 10.050000
19115 4 43.349093 53.191336 10.050000
19116 4 43.752177 52.477433 10.050000
19117 4 44.599238 55.309433 10.050000
19118 4 45.002323 54.595531 10.050000
19119 4 45.849384 57.427530 10.050000
19120 4 46.252468 56.713628 10.050000
19121 4 -19.199081 -56.973330 10.050000
19122 4 -18.795997 -57.687232 10.050000
19123 4 -17.948936 -54.855233 10.050000
19124 4 -17.545851 -55.569135 10.050000
19125 4 -16.698790 -52.737135 10.050000
19126 4 -16.295706 -53.451038 10.050000
19127 4 -15.448644 -50.619038 10.050000
19128 4 -15.045560 -51.332940 10.050000
19129 4 -14.198499 -48.500941 10.050000
19130 4 -13.795414 -49.214843 10.050000
19131 4 -12.948353 -46.382844 10.050000
19132 4 -12.545269 -47.096746 10.050000
19133 4 -11.698208 -44.264746 10.050000
19134 4 -11.295123 -44.978649 10.050000
19135 4 -10.448062 -42.146649 10.050000
19136 4 -10.044977 -42.860551 10.050000
19137 4 -9.197916 -40.028552 10.050000
19138 4 -8.794832 -40.742454 10.050000
19139 4 -7.947771 -37.910455 10.050000
19140 4 -7.544686 -38.624357 10.050000
19141 4 -6.697625 -35.792357 10.050000
19142 4 -6.294541 -36.506260 10.050000
19143 4 -5.447479 -33.674260 10.050000
19144 4 -5.044395 -34.388162 10.050000
19145 4 -4.197334 -31.556163 10.050000
19146 4 -3.794249 -32.270065 10.050000
19147 4 -2.947188 -29.438066 10.050000
19148 4 -2.544104 -30.151968 10.050000
19149 4 -1.697042 -27.319969 10.050000
19150 4 -1.293958 -28.033871 10.050000
19151 4 -0.446897 -25.201871 10.050000
19152 4 -0.043812 -25.915773 10.050000
19153 4 0.803249 -23.083774 10.050000
19154 4 1.206333 -23.797676 10.050000
19155 4 2.053394 -20.965677 10.050000
19156 4 2.456479 -21.679579 10.050000
19157 4 3.303540 -18.847580 10.050000
19158 4 3.706624 -19.561482 10.050000
19159 4 4.553686 -16.729482 10.050000
19160 4 4.956770 -17.443385 10.050000
19161 4 5.803831 -14.611385 10.050000
19162 4 6.206916 -15.325287 10.050000
19163 4 7.053977 -12.493288 10.050000
19164 4 7.457061 -13.207190 10.050000
19165 4 8.304123 -10.375191 10.050000
19166 4 8.707207 -11.089093 10.050000
19167 4 9.554268 -8.257093 10.050000
19168 4 9.957353 -8.970996 10.050000
19169 4 10.804414 -6.138996 10.050000
19170 4 11.207498 -6.852898 10.050000
19171 4 12.054560 -4.020899 10.050000
19172 4 12.457644 -4.734801 10.050000
19173 4 13.304705 -1.902802 10.050000
19174 4 13.707790 -2.616704 10.050000
19175 4 14.554851 0.215296 10.050000
19176 4 14.957935 -0.498607 10.050000
19177 4 15.804996 2.333393 10.050000
19178 4 16.208081 1.619491 10.050000
19179 4 17.055142 4.451490 10.050000
19180 4 17.458226 3.737588 10.050000
19181 4 18.305288 6.569587 10.050000
19182 4 18.708372 5.855685 10.050000
19183 4 19.555433 8.687684 10.050000
19184 4 19.958518 7.973782 10.050000
19185 4 20.805579 10.805782 10.050000
19186 4 21.208663 10.091880 10.050000
19187 4 22.055725 12.923879 10.050000
19188 4 22.458809 12.209977 10.050000
19189 4 23.305870 15.041976 10.050000
19190 4 23.708955 14.328074 10.050000
19191 4 24.556016 17.160073 10.050000
19192 4 24.959100 16.446171 10.050000
19193 4 25.806161 19.278171 10.050000
19194 4 26.209246 18.564268 10.050000
19195 4 27.056307 21.396268 10.050000
19196 4 27.459392 20.682366 10.050000
19197 4 28.306453 23.514365 10.050000
19198 4 28.709537 22.800463 10.050000
19199 4 29.556598 25.632462 10.050000
19200 4 29.959683 24.918560 10.050000
19201 4 30.806744 27.750560 10.050000
19202 4 31.209828 27.036657 10.050000
19203 4 32.056890 29.868657 10.050000
19204 4 32.459974 29.154755 10.050000
19205 4 33.307035 31.986754 10.050000
19206 4 33.710120 31.272852 10.050000
19207 4 34.557181 34.104851 10.050000
19208 4 34.960265 33.390949 10.050000
19209 4 35.807327 36.222949 10.050000
19210 4 36.210411 35.509046 10.050000
19211 4 37.057472 38.341046 10.050000
19212 4 37.460557 37.627144 10.050000
19213 4 38.307618 40.459143 10.050000
19214 4 38.710702 39.745241 10.050000
19215 4 39.557763 42.577240 10.050000
19216 4 39.960848 41.863338 10.050000
19217 4 40.807909 44.695337 10.050000
19218 4 41.210993 43.981435 10.050000
19219 4 42.058055 46.813435 10.050000
19220 4 42.461139 46.099533 10.050000
19221 4 43.308200 48.931532 10.050000
19222 4 43.711285 48.217630 10.050000
19223 4 44.558346 51.049629 10.050000
19224 4 44.961430 50.335727 10.050000
19225 4 45.808492 53.167726 10.050000
19226 4 46.211576 52.453824 10.050000
19227 4 47.058637 55.285824 10.050000
19228 4 47.461722 54.571921 10.050000
19229 4 48.308783 57.403921 10.050000
19230 4 48.711867 56.690019 10.050000
19231 4 -16.739682 -56.996939 10.050000
19232 4 -16.336598 -57.710841 10.050000
19233 4 -15.489537 -54.878842 10.050000
19234 4 -15.086452 -55.592744 10.050000
19235 4 -14.239391 -52.760745 10.050000
19236 4 -13.836307 -53.474647 10.050000
19237 4 -12.989246 -50.642647 10.050000
19238 4 -12.586161 -51.356550 10.050000
19239 4 -11.739100 -48.524550 10.050000
19240 4 -11.336016 -49.238452 10.050000
19241 4 -10.488954 -46.406453 10.050000
19242 4 -10.085870 -47.120355 10.050000
19243 4 -9.238809 -44.288356 10.050000
19244 4 -8.835724 -45.002258 10.050000
19245 4 -7.988663 -42.170258 10.050000
19246 4 -7.585579 -42.884161 10.050000
19247 4 -6.738517 -40.052161 10.050000
19248 4 -6.335433 -40.766063 10.050000
19249 4 -5.488372 -37.934064 10.050000
19250 4 -5.085287 -38.647966 10.050000
19251 4 -4.238226 -35.815967 10.050000
19252 4 -3.835142 -36.529869 10.050000
19253 4 -2.988081 -33.697869 10.050000
19254 4 -2.584996 -34.411772 10.050000
19255 4 -1.737935 -31.579772 10.050000
19256 4 -1.334850 -32.293674 10.050000
19257 4 -0.487789 -29.461675 10.050000
19258 4 -0.084705 -30.175577 10.050000
19259 4 0.762356 -27.343578 10.050000
19260 4 1.165441 -28.057480 10.050000
19261 4 2.012502 -25.225481 10.050000
19262 4 2.415586 -25.939383 10.050000
19263 4 3.262648 -23.107383 10.050000
19264 4 3.665732 -23.821285 10.050000
19265 4 4.512793 -20.989286 10.050000
19266 4 4.915878 -21.703188 10.050000
19267 4 5.762939 -18.871189 10.050000
19268 4 6.166023 -19.585091 10.050000
19269 4 7.013085 -16.753092 10.050000
19270 4 7.416169 -17.466994 10.050000
19271 4 8.263230 -14.634994 10.050000
19272 4 8.666315 -15.348897 10.050000
19273 4 9.513376 -12.516897 10.050000
19274 4 9.916460 -13.230799 10.050000
19275 4 10.763521 -10.398800 10.050000
19276 4 11.166606 -11.112702 10.050000
19277 4 12.013667 -8.280703 10.050000
19278 4 12.416751 -8.994605 10.050000
19279 4 13.263813 -6.162605 10.050000
19280 4 13.666897 -6.876508 10.050000
19281 4 14.513958 -4.044508 10.050000
19282 4 14.917043 -4.758410 10.050000
19283 4 15.764104 -1.926411 10.050000
19284 4 16.167188 -2.640313 10.050000
19285 4 17.014250 0.191686 10.050000
19286 4 17.417334 -0.522216 10.050000
19287 4 18.264395 2.309784 10.050000
19288 4 18.667480 1.595881 10.050000
19289 4 19.514541 4.427881 10.050000
19290 4 19.917625 3.713979 10.050000
19291 4 20.764687 6.545978 10.050000
19292 4 21.167771 5.832076 10.050000
19293 4 22.014832 8.664075 10.050000
19294 4 22.417917 7.950173 10.050000
19295 4 23.264978 10.782172 10.050000
19296 4 23.668062 10.068270 10.050000
19297 4 24.515123 12.900270 10.050000
19298 4 24.918208 12.186368 10.050000
19299 4 25.765269 15.018367 10.050000
19300 4 26.168353 14.304465 10.050000
19301 4 27.015415 17.136464 10.050000
19302 4 27.418499 16.422562 10.050000
19303 4 28.265560 19.254561 10.050000
19304 4 28.668645 18.540659 10.050000
19305 4 29.515706 21.372659 10.050000
19306 4 29.918790 20.658756 10.050000
19307 4 30.765852 23.490756 10.050000
19308 4 31.168936 22.776854 10.050000
19309 4 32.015997 25.608853 10.050000
19310 4 32.419082 24.894951 10.050000
19311 4 33.266143 27.726950 10.050000
19312 4 33.669227 27.013048 10.050000
19313 4 34.516288 29.845048 10.050000
19314 4 34.919373 29.131145 10.050000
19315 4 35.766434 31.963145 10.050000
19316 4 36.169519 31.249243 10.050000
19317 4 37.016580 34.081242 10.050000
19318 4 37.419664 33.367340 10.050000
19319 4 38.266725 36.199339 10.050000
19320 4 38.669810 35.485437 10.050000
19321 4 39.516871 38.317436 10.050000
19322 4 39.919955 37.603534 10.050000
19323 4 40.767017 40.435534 10.050000
19324 4 41.170101 39.721632 10.050000
19325 4 42.017162 42.553631 10.050000
19326 4 42.420247 41.839729 10.050000
19327 4 43.267308 44.671728 10.050000
19328 4 43.670392 43.957826 10.050000
19329 4 44.517454 46.789825 10.050000
19330 4 44.920538 46.075923 10.050000
19331 4 45.767599 48.907923 10.050000
19332 4 46.170684 48.194021 10.050000
19333 4 47.017745 51.026020 10.050000
19334 4 47.420829 50.312118 10.050000
19335 4 48.267890 53.144117 10.050000
19336 4 48.670975 52.430215 10.050000
19337 4 49.518036 55.262214 10.050000
19338 4 49.921120 54.548312 10.050000
19339 4 50.768182 57.380312 10.050000
19340 4 51.171266 56.666409 10.050000
19341 4 -14.280284 -57.020548 10.050000
19342 4 -13.877199 -57.734450 10.050000
19343 4 -13.030138 -54.902451 10.050000
19344 4 -12.627054 -55.616353 10.050000
19345 4 -11.779992 -52.784354 10.050000
19346 4 -11.376908 -53.498256 10.050000
19347 4 -10.529847 -50.666257 10.050000
19348 4 -10.126762 -51.380159 10.050000
19349 4 -9.279701 -48.548159 10.050000
19350 4 -8.876617 -49.262062 10.050000
19351 4 -8.029555 -46.430062 10.050000
19352 4 -7.626471 -47.143964 10.050000
19353 4 -6.779410 -44.311965 10.050000
19354 4 -6.376325 -45.025867 10.050000
19355 4 -5.529264 -42.193868 10.050000
19356 4 -5.126180 -42.907770 10.050000
19357 4 -4.279119 -40.075770 10.050000
19358 4 -3.876034 -40.789673 10.050000
19359 4 -3.028973 -37.957673 10.050000
19360 4 -2.625889 -38.671575 10.050000
19361 4 -1.778827 -35.839576 10.050000
19362 4 -1.375743 -36.553478 10.050000
19363 4 -0.528682 -33.721479 10.050000
19364 4 -0.125597 -34.435381 10.050000
19365 4 0.721464 -31.603382 10.050000
19366 4 1.124548 -32.317284 10.050000
19367 4 1.971610 -29.485284 10.050000
19368 4 2.374694 -30.199186 10.050000
19369 4 3.221755 -27.367187 10.050000
19370 4 3.624840 -28.081089 10.050000
19371 4 4.471901 -25.249090 10.050000
19372 4 4.874985 -25.962992 10.050000
19373 4 5.722046 -23.130993 10.050000
19374 4 6.125131 -23.844895 10.050000
19375 4 6.972192 -21.012895 10.050000
19376 4 7.375277 -21.726798 10.050000
19377 4 8.222338 -18.894798 10.050000
19378 4 8.625422 -19.608700 10.050000
19379 4 9.472483 -16.776701 10.050000
19380 4 9.875568 -17.490603 10.050000
19381 4 10.722629 -14.658604 10.050000
19382 4 11.125713 -15.372506 10.050000
19383 4 11.972775 -12.540506 10.050000
19384 4 12.375859 -13.254409 10.050000
19385 4 13.222920 -10.422409 10.050000
19386 4 13.626005 -11.136311 10.050000
19387 4 14.473066 -8.304312 10.050000
19388 4 14.876150 -9.018214 10.050000
19389 4 15.723212 -6.186215 10.050000
19390 4 16.126296 -6.900117 10.050000
19391 4 16.973357 -4.068117 10.050000
19392 4 17.376442 -4.782020 10.050000
19393 4 18.223503 -1.950020 10.050000
19394 4 18.626587 -2.663922 10.050000
19395 4 19.473648 0.168077 10.050000
19396 4 19.876733 -0.545825 10.050000
19397 4 20.723794 2.286174 10.050000
19398 4 21.126878 1.572272 10.050000
19399 4 21.973940 4.404271 10.050000
19400 4 22.377024 3.690369 10.050000
19401 4 23.224085 6.522369 10.050000
19402 4 23.627170 5.808467 10.050000
19403 4 24.474231 8.640466 10.050000
19404 4 24.877315 7.926564 10.050000
19405 4 25.724377 10.758563 10.050000
19406 4 26.127461 10.044661 10.050000
19407 4 26.974522 12.876660 10.050000
19408 4 27.377607 12.162758 10.050000
19409 4 28.224668 14.994758 10.050000
19410 4 28.627752 14.280855 10.050000
19411 4 29.474814 17.112855 10.050000
19412 4 29.877898 16.398953 10.050000
19413 4 30.724959 19.230952 10.050000
19414 4 31.128044 18.517050 10.050000
19415 4 31.975105 21.349049 10.050000
19416 4 32.378189 20.635147 10.050000
19417 4 33.225250 23.467147 10.050000
19418 4 33.628335 22.753244 10.050000
19419 4 34.475396 25.585244 10.050000
19420 4 34.878480 24.871342 10.050000
19421 4 35.725542 27.703341 10.050000
19422 4 36.128626 26.989439 10.050000
19423 4 36.975687 29.821438 10.050000
19424 4 37.378772 29.107536 10.050000
19425 4 38.225833 31.939536 10.050000
19426 4 38.628917 31.225633 10.050000
19427 4 39.475979 34.057633 10.050000
19428 4 39.879063 33.343731 10.050000
19429 4 40.726124 36.175730 10.050000
19430 4 41.129209 35.461828 10.050000
19431 4 41.976270 38.293827 10.050000
19432 4 42.379354 37.579925 10.050000
19433 4 43.226415 40.411924 10.050000
19434 4 43.629500 39.698022 10.050000
19435 4 44.476561 42.530022 10.050000
19436 4 44.879645 41.816120 10.050000
19437 4 45.726707 44.648119 10.050000
19438 4 46.129791 43.934217 10.050000
19439 4 46.976852 46.766216 10.050000
19440 4 47.379937 46.052314 10.050000
19441 4 48.226998 48.884313 10.050000
19442 4 48.630082 48.170411 10.050000
19443 4 49.477144 51.002411 10.050000
19444 4 49.880228 50.288508 10.050000
19445 4 50.727289 53.120508 10.050000
19446 4 51.130374 52.406606 10.050000
19447 4 51.977435 55.238605 10.050000
19448 4 52.380519 54.524703 10.050000
19449 4 -11.820885 -57.044158 10.050000
19450 4 -11.417800 -57.758060 10.050000
19451 4 -10.570739 -54.926060 10.050000
19452 4 -10.167655 -55.639963 10.050000
19453 4 -9.320594 -52.807963 10.050000
19454 4 -8.917509 -53.521865 10.050000
19455 4 -8.070448 -50.689866 10.050000
19456 4 -7.667364 -51.403768 10.050000
19457 4 -6.820302 -48.571769 10.050000
19458 4 -6.417218 -49.285671 10.050000
19459 4 -5.570157 -46.453671 10.050000
19460 4 -5.167072 -47.167574 10.050000
19461 4 -4.320011 -44.335574 10.050000
19462 4 -3.916927 -45.049476 10.050000
19463 4 -3.069865 -42.217477 10.050000
19464 4 -2.666781 -42.931379 10.050000
19465 4 -1.819720 -40.099380 10.050000
19466 4 -1.416635 -40.813282 10.050000
19467 4 -0.569574 -37.981282 10.050000
19468 4 -0.166490 -38.695185 10.050000
19469 4 0.680572 -35.863185 10.050000
19470 4 1.083656 -36.577087 10.050000
19471 4 1.930717 -33.745088 10.050000
19472 4 2.333802 -34.458990 10.050000
19473 4 3.180863 -31.626991 10.050000
19474 4 3.583947 -32.340893 10.050000
19475 4 4.431008 -29.508894 10.050000
19476 4 4.834093 -30.222796 10.050000
19477 4 5.681154 -27.390796 10.050000
19478 4 6.084238 -28.104698 10.050000
19479 4 6.931300 -25.272699 10.050000
19480 4 7.334384 -25.986601 10.050000
19481 4 8.181445 -23.154602 10.050000
19482 4 8.584530 -23.868504 10.050000
19483 4 9.431591 -21.036505 10.050000
19484 4 9.834675 -21.750407 10.050000
19485 4 10.681737 -18.918407 10.050000
19486 4 11.084821 -19.632310 10.050000
19487 4 11.931882 -16.800310 10.050000
19488 4 12.334967 -17.514212 10.050000
19489 4 13.182028 -14.682213 10.050000
19490 4 13.585112 -15.396115 10.050000
19491 4 14.432173 -12.564116 10.050000
19492 4 14.835258 -13.278018 10.050000
19493 4 15.682319 -10.446018 10.050000
19494 4 16.085404 -11.159921 10.050000
19495 4 16.932465 -8.327921 10.050000
19496 4 17.335549 -9.041823 10.050000
19497 4 18.182610 -6.209824 10.050000
19498 4 18.585695 -6.923726 10.050000
19499 4 19.432756 -4.091727 10.050000
19500 4 19.835840 -4.805629 10.050000
19501 4 20.682902 -1.973629 10.050000
19502 4 21.085986 -2.687532 10.050000
19503 4 21.933047 0.144468 10.050000
19504 4 22.336132 -0.569434 10.050000
19505 4 23.183193 2.262565 10.050000
19506 4 23.586277 1.548663 10.050000
19507 4 24.433339 4.380662 10.050000
19508 4 24.836423 3.666760 10.050000
19509 4 25.683484 6.498759 10.050000
19510 4 26.086569 5.784857 10.050000
19511 4 26.933630 8.616857 10.050000
19512 4 27.336714 7.902955 10.050000
19513 4 28.183775 10.734954 10.050000
19514 4 28.586860 10.021052 10.050000
19515 4 29.433921 12.853051 10.050000
19516 4 29.837005 12.139149 10.050000
19517 4 30.684067 14.971148 10.050000
19518 4 31.087151 14.257246 10.050000
19519 4 31.934212 17.089246 10.050000
19520 4 32.337297 16.375343 10.050000
19521 4 33.184358 19.207343 10.050000
19522 4 33.587442 18.493441 10.050000
19523 4 34.434504 21.325440 10.050000
19524 4 34.837588 20.611538 10.050000
19525 4 35.684649 23.443537 10.050000
19526 4 36.087734 22.729635 10.050000
19527 4 36.934795 25.561635 10.050000
19528 4 37.337879 24.847732 10.050000
19529 4 38.184940 27.679732 10.050000
19530 4 38.588025 26.965830 10.050000
19531 4 39.435086 29.797829 10.050000
19532 4 39.838171 29.083927 10.050000
19533 4 40.685232 31.915926 10.050000
19534 4 41.088316 31.202024 10.050000
19535 4 41.935377 34.034024 10.050000
19536 4 42.338462 33.320121 10.050000
19537 4 43.185523 36.152121 10.050000
19538 4 43.588607 35.438219 10.050000
19539 4 44.435669 38.270218 10.050000
19540 4 44.838753 37.556316 10.050000
19541 4 45.685814 40.388315 10.050000
19542 4 46.088899 39.674413 10.050000
19543 4 46.935960 42.506412 10.050000
19544 4 47.339044 41.792510 10.050000
19545 4 48.186106 44.624510 10.050000
19546 4 48.589190 43.910608 10.050000
19547 4 49.436251 46.742607 10.050000
19548 4 49.839336 46.028705 10.050000
19549 4 50.686397 48.860704 10.050000
19550 4 51.089481 48.146802 10.050000
19551 4 51.936542 50.978801 10.050000
19552 4 52.339627 50.264899 10.050000
19553 4 53.186688 53.096899 10.050000
19554 4 53.589772 52.382996 10.050000
19555 4 -9.361486 -57.067767 10.050000
19556 4 -8.958402 -57.781669 10.050000
19557 4 -8.111340 -54.949670 10.050000
19558 4 -7.708256 -55.663572 10.050000
19559 4 -6.861195 -52.831572 10.050000
19560 4 -6.458110 -53.545475 10.050000
19561 4 -5.611049 -50.713475 10.050000
19562 4 -5.207965 -51.427377 10.050000
19563 4 -4.360903 -48.595378 10.050000
19564 4 -3.957819 -49.309280 10.050000
19565 4 -3.110758 -46.477281 10.050000
19566 4 -2.707673 -47.191183 10.050000
19567 4 -1.860612 -44.359183 10.050000
19568 4 -1.457528 -45.073086 10.050000
19569 4 -0.610467 -42.241086 10.050000
19570 4 -0.207382 -42.954988 10.050000
19571 4 0.639679 -40.122989 10.050000
19572 4 1.042763 -40.836891 10.050000
19573 4 1.889825 -38.004892 10.050000
19574 4 2.292909 -38.718794 10.050000
19575 4 3.139970 -35.886795 10.050000
19576 4 3.543055 -36.600697 10.050000
19577 4 4.390116 -33.768697 10.050000
19578 4 4.793200 -34.482599 10.050000
19579 4 5.640262 -31.650600 10.050000
19580 4 6.043346 -32.364502 10.050000
19581 4 6.890407 -29.532503 10.050000
19582 4 7.293492 -30.246405 10.050000
19583 4 8.140553 -27.414406 10.050000
19584 4 8.543637 -28.128308 10.050000
19585 4 9.390699 -25.296308 10.050000
19586 4 9.793783 -26.010210 10.050000
19587 4 10.640844 -23.178211 10.050000
19588 4 11.043929 -23.892113 10.050000
19589 4 11.890990 -21.060114 10.050000
19590 4 12.294074 -21.774016 10.050000
19591 4 13.141135 -18.942017 10.050000
19592 4 13.544220 -19.655919 10.050000
19593 4 14.391281 -16.823919 10.050000
19594 4 14.794365 -17.537822 10.050000
19595 4 15.641427 -14.705822 10.050000
19596 4 16.044511 -15.419724 10.050000
19597 4 16.891572 -12.587725 10.050000
19598 4 17.294657 -13.301627 10.050000
19599 4 18.141718 -10.469628 10.050000
19600 4 18.544802 -11.183530 10.050000
19601 4 19.391864 -8.351530 10.050000
19602 4 19.794948 -9.065433 10.050000
19603 4 20.642009 -6.233433 10.050000
19604 4 21.045094 -6.947335 10.050000
19605 4 21.892155 -4.115336 10.050000
19606 4 22.295239 -4.829238 10.050000
19607 4 23.142300 -1.997239 10.050000
19608 4 23.545385 -2.711141 10.050000
19609 4 24.392446 0.120858 10.050000
19610 4 24.795530 -0.593044 10.050000
19611 4 25.642592 2.238956 10.050000
19612 4 26.045676 1.525054 10.050000
19613 4 26.892737 4.357053 10.050000
19614 4 27.295822 3.643151 10.050000
19615 4 28.142883 6.475150 10.050000
19616 4 28.545967 5.761248 10.050000
19617 4 29.393029 8.593247 10.050000
19618 4 29.796113 7.879345 10.050000
19619 4 30.643174 10.711345 10.050000
19620 4 31.046259 9.997443 10.050000
19621 4 31.893320 12.829442 10.050000
19622 4 32.296404 12.115540 10.050000
19623 4 33.143466 14.947539 10.050000
19624 4 33.546550 14.233637 10.050000
19625 4 34.393611 17.065636 10.050000
19626 4 34.796696 16.351734 10.050000
19627 4 35.643757 19.183734 10.050000
19628 4 36.046841 18.469831 10.050000
19629 4 36.893902 21.301831 10.050000
19630 4 37.296987 20.587929 10.050000
19631 4 38.144048 23.419928 10.050000
19632 4 38.547132 22.706026 10.050000
19633 4 39.394194 25.538025 10.050000
19634 4 39.797278 24.824123 10.050000
19635 4 40.644339 27.656123 10.050000
19636 4 41.047424 26.942220 10.050000
19637 4 41.894485 29.774220 10.050000
19638 4 42.297569 29.060318 10.050000
19639 4 43.144631 31.892317 10.050000
19640 4 43.547715 31.178415 10.050000
19641 4 44.394776 34.010414 10.050000
19642 4 44.797861 33.296512 10.050000
19643 4 45.644922 36.128511 10.050000
19644 4 46.048006 35.414609 10.050000
19645 4 46.895067 38.246609 10.050000
19646 4 47.298152 37.532707 10.050000
19647 4 48.145213 40.364706 10.050000
19648 4 48.548298 39.650804 10.050000
19649 4 49.395359 42.482803 10.050000
19650 4 49.798443 41.768901 10.050000
19651 4 50.645504 44.600900 10.050000
19652 4 51.048589 43.886998 10.050000
19653 4 51.895650 46.718998 10.050000
19654 4 52.298734 46.005095 10.050000
19655 4 53.145796 48.837095 10.050000
19656 4 53.548880 48.123193 10.050000
19657 4 54.395941 50.955192 10.050000
19658 4 54.799026 50.241290 10.050000
19659 4 56.049171 52.359387 10.050000
19660 4 -6.902087 -57.091376 10.050000
19661 4 -6.499003 -57.805278 10.050000
19662 4 -5.651942 -54.973279 10.050000
19663 4 -5.248857 -55.687181 10.050000
19664 4 -4.401796 -52.855182 10.050000
19665 4 -3.998711 -53.569084 10.050000
19666 4 -3.151650 -50.737084 10.050000
19667 4 -2.748566 -51.450987 10.050000
19668 4 -1.901505 -48.618987 10.050000
19669 4 -1.498420 -49.332889 10.050000
19670 4 -0.651359 -46.500890 10.050000
19671 4 -0.248275 -47.214792 10.050000
19672 4 0.598787 -44.382793 10.050000
19673 4 1.001871 -45.096695 10.050000
19674 4 1.848932 -42.264695 10.050000
19675 4 2.252017 -42.978598 10.050000
19676 4 3.099078 -40.146598 10.050000
19677 4 3.502162 -40.860500 10.050000
19678 4 4.349224 -38.028501 10.050000
19679 4 4.752308 -38.742403 10.050000
19680 4 5.599369 -35.910404 10.050000
19681 4 6.002454 -36.624306 10.050000
19682 4 6.849515 -33.792307 10.050000
19683 4 7.252599 -34.506209 10.050000
19684 4 8.099660 -31.674209 10.050000
19685 4 8.502745 -32.388111 10.050000
19686 4 9.349806 -29.556112 10.050000
19687 4 9.752890 -30.270014 10.050000
19688 4 10.599952 -27.438015 10.050000
19689 4 11.003036 -28.151917 10.050000
19690 4 11.850097 -25.319918 10.050000
19691 4 12.253182 -26.033820 10.050000
19692 4 13.100243 -23.201820 10.050000
19693 4 13.503327 -23.915723 10.050000
19694 4 14.350389 -21.083723 10.050000
19695 4 14.753473 -21.797625 10.050000
19696 4 15.600534 -18.965626 10.050000
19697 4 16.003619 -19.679528 10.050000
19698 4 16.850680 -16.847529 10.050000
19699 4 17.253764 -17.561431 10.050000
19700 4 18.100825 -14.729431 10.050000
19701 4 18.503910 -15.443334 10.050000
19702 4 19.350971 -12.611334 10.050000
19703 4 19.754056 -13.325236 10.050000
19704 4 20.601117 -10.493237 10.050000
19705 4 21.004201 -11.207139 10.050000
19706 4 21.851262 -8.375140 10.050000
19707 4 22.254347 -9.089042 10.050000
19708 4 23.101408 -6.257042 10.050000
19709 4 23.504492 -6.970945 10.050000
19710 4 24.351554 -4.138945 10.050000
19711 4 24.754638 -4.852847 10.050000
19712 4 25.601699 -2.020848 10.050000
19713 4 26.004784 -2.734750 10.050000
19714 4 26.851845 0.097249 10.050000
19715 4 27.254929 -0.616653 10.050000
19716 4 28.101991 2.215346 10.050000
19717 4 28.505075 1.501444 10.050000
19718 4 29.352136 4.333444 10.050000
19719 4 29.755221 3.619542 10.050000
19720 4 30.602282 6.451541 10.050000
19721 4 31.005366 5.737639 10.050000
19722 4 31.852427 8.569638 10.050000
19723 4 32.255512 7.855736 10.050000
19724 4 33.102573 10.687735 10.050000
19725 4 33.505657 9.973833 10.050000
19726 4 34.352719 12.805833 10.050000
19727 4 34.755803 12.091930 10.050000
19728 4 35.602864 14.923930 10.050000
19729 4 36.005949 14.210028 10.050000
19730 4 36.853010 17.042027 10.050000
19731 4 37.256094 16.328125 10.050000
19732 4 38.103156 19.160124 10.050000
19733 4 38.506240 18.446222 10.050000
19734 4 39.353301 21.278222 10.050000
19735 4 39.756386 20.564319 10.050000
19736 4 40.603447 23.396319 10.050000
19737 4 41.006531 22.682417 10.050000
19738 4 41.853593 25.514416 10.050000
19739 4 42.256677 24.800514 10.050000
19740 4 43.103738 27.632513 10.050000
19741 4 43.506823 26.918611 10.050000
19742 4 44.353884 29.750611 10.050000
19743 4 44.756968 29.036708 10.050000
19744 4 45.604029 31.868708 10.050000
19745 4 46.007114 31.154806 10.050000
19746 4 46.854175 33.986805 10.050000
19747 4 47.257259 33.272903 10.050000
19748 4 48.104321 36.104902 10.050000
19749 4 48.507405 35.391000 10.050000
19750 4 49.354466 38.222999 10.050000
19751 4 49.757551 37.509097 10.050000
19752 4 50.604612 40.341097 10.050000
19753 4 51.007696 39.627195 10.050000
19754 4 51.854758 42.459194 10.050000
19755 4 52.257842 41.745292 10.050000
19756 4 53.104903 44.577291 10.050000
19757 4 53.507988 43.863389 10.050000
19758 4 54.355049 46.695388 10.050000
19759 4 54.758133 45.981486 10.050000
19760 4 55.605194 48.813486 10.050000
19761 4 56.008279 48.099583 10.050000
19762 4 56.855340 50.931583 10.050000
19763 4 57.258425 50.217681 10.050000
19764 4 -4.442688 -57.114985 10.050000
19765 4 -4.039604 -57.828888 10.050000
19766 4 -3.192543 -54.996888 10.050000
19767 4 -2.789458 -55.710790 10.050000
19768 4 -1.942397 -52.878791 10.050000
19769 4 -1.539313 -53.592693 10.050000
19770 4 -0.692251 -50.760694 10.050000
19771 4 -0.289167 -51.474596 10.050000
19772 4 0.557894 -48.642596 10.050000
19773 4 0.960979 -49.356499 10.050000
19774 4 1.808040 -46.524499 10.050000
19775 4 2.211124 -47.238401 10.050000
19776 4 3.058185 -44.406402 10.050000
19777 4 3.461270 -45.120304 10.050000
19778 4 4.308331 -42.288305 10.050000
19779 4 4.711415 -43.002207 10.050000
19780 4 5.558477 -40.170207 10.050000
19781 4 5.961561 -40.884110 10.050000
19782 4 6.808622 -38.052110 10.050000
19783 4 7.211707 -38.766012 10.050000
19784 4 8.058768 -35.934013 10.050000
19785 4 8.461852 -36.647915 10.050000
19786 4 9.308914 -33.815916 10.050000
19787 4 9.711998 -34.529818 10.050000
19788 4 10.559059 -31.697819 10.050000
19789 4 10.962144 -32.411721 10.050000
19790 4 11.809205 -29.579721 10.050000
19791 4 12.212289 -30.293623 10.050000
19792 4 13.059351 -27.461624 10.050000
19793 4 13.462435 -28.175526 10.050000
19794 4 14.309496 -25.343527 10.050000
19795 4 14.712581 -26.057429 10.050000
19796 4 15.559642 -23.225430 10.050000
19797 4 15.962726 -23.939332 10.050000
19798 4 16.809787 -21.107332 10.050000
19799 4 17.212872 -21.821235 10.050000
19800 4 18.059933 -18.989235 10.050000
19801 4 18.463017 -19.703137 10.050000
19802 4 19.310079 -16.871138 10.050000
19803 4 19.713163 -17.585040 10.050000
19804 4 20.560224 -14.753041 10.050000
19805 4 20.963309 -15.466943 10.050000
19806 4 21.810370 -12.634943 10.050000
19807 4 22.213454 -13.348846 10.050000
19808 4 23.060516 -10.516846 10.050000
19809 4 23.463600 -11.230748 10.050000
19810 4 24.310661 -8.398749 10.050000
19811 4 24.713746 -9.112651 10.050000
19812 4 25.560807 -6.280652 10.050000
19813 4 25.963891 -6.994554 10.050000
19814 4 26.810952 -4.162554 10.050000
19815 4 27.214037 -4.876457 10.050000
19816 4 28.061098 -2.044457 10.050000
19817 4 28.464183 -2.758359 10.050000
19818 4 29.311244 0.073640 10.050000
19819 4 29.714328 -0.640262 10.050000
19820 4 30.561389 2.191737 10.050000
19821 4 30.964474 1.477835 10.050000
19822 4 31.811535 4.309834 10.050000
19823 4 32.214619 3.595932 10.050000
19824 4 33.061681 6.427932 10.050000
19825 4 33.464765 5.714030 10.050000
19826 4 34.311826 8.546029 10.050000
19827 4 34.714911 7.832127 10.050000
19828 4 35.561972 10.664126 10.050000
19829 4 35.965056 9.950224 10.050000
19830 4 36.812118 12.782223 10.050000
19831 4 37.215202 12.068321 10.050000
19832 4 38.062263 14.900321 10.050000
19833 4 38.465348 14.186418 10.050000
19834 4 39.312409 17.018418 10.050000
19835 4 39.715493 16.304516 10.050000
19836 4 40.562554 19.136515 10.050000
19837 4 40.965639 18.422613 10.050000
19838 4 41.812700 21.254612 10.050000
19839 4 42.215784 20.540710 10.050000
19840 4 43.062846 23.372710 10.050000
19841 4 43.465930 22.658807 10.050000
19842 4 44.312991 25.490807 10.050000
19843 4 44.716076 24.776905 10.050000
19844 4 45.563137 27.608904 10.050000
19845 4 45.966221 26.895002 10.050000
19846 4 46.813283 29.727001 10.050000
19847 4 47.216367 29.013099 10.050000
19848 4 48.063428 31.845098 10.050000
19849 4 48.466513 31.131196 10.050000
19850 4 49.313574 33.963196 10.050000
19851 4 49.716658 33.249294 10.050000
19852 4 50.563720 36.081293 10.050000
19853 4 50.966804 35.367391 10.050000
19854 4 51.813865 38.199390 10.050000
19855 4 52.216950 37.485488 10.050000
19856 4 53.064011 40.317487 10.050000
19857 4 53.467095 39.603585 10.050000
19858 4 54.314156 42.435585 10.050000
19859 4 54.717241 41.721683 10.050000
19860 4 55.564302 44.553682 10.050000
19861 4 55.967386 43.839780 10.050000
19862 4 56.814448 46.671779 10.050000
19863 4 57.217532 45.957877 10.050000
19864 4 58.064593 48.789876 10.050000
19865 4 58.467678 48.075974 10.050000
19866 4 -1.983290 -57.138595 10.050000
19867 4 -1.580205 -57.852497 10.050000
19868 4 -0.733144 -55.020497 10.050000
19869 4 -0.330059 -55.734400 10.050000
19870 4 0.517002 -52.902400 10.050000
19871 4 0.920086 -53.616302 10.050000
19872 4 1.767147 -50.784303 10.050000
19873 4 2.170232 -51.498205 10.050000
19874 4 3.017293 -48.666206 10.050000
19875 4 3.420377 -49.380108 10.050000
19876 4 4.267439 -46.548108 10.050000
19877 4 4.670523 -47.262011 10.050000
19878 4 5.517584 -44.430011 10.050000
19879 4 5.920669 -45.143913 10.050000
19880 4 6.767730 -42.311914 10.050000
19881 4 7.170814 -43.025816 10.050000
19882 4 8.017876 -40.193817 10.050000
19883 4 8.420960 -40.907719 10.050000
19884 4 9.268021 -38.075720 10.050000
19885 4 9.671106 -38.789622 10.050000
19886 4 10.518167 -35.957622 10.050000
19887 4 10.921251 -36.671524 10.050000
19888 4 11.768312 -33.839525 10.050000
19889 4 12.171397 -34.553427 10.050000
19890 4 13.018458 -31.721428 10.050000
19891 4 13.421542 -32.435330 10.050000
19892 4 14.268604 -29.603331 10.050000
19893 4 14.671688 -30.317233 10.050000
19894 4 15.518749 -27.485233 10.050000
19895 4 15.921834 -28.199136 10.050000
19896 4 16.768895 -25.367136 10.050000
19897 4 17.171979 -26.081038 10.050000
19898 4 18.019041 -23.249039 10.050000
19899 4 18.422125 -23.962941 10.050000
19900 4 19.269186 -21.130942 10.050000
19901 4 19.672271 -21.844844 10.050000
19902 4 20.519332 -19.012844 10.050000
19903 4 20.922416 -19.726747 10.050000
19904 4 21.769478 -16.894747 10.050000
19905 4 22.172562 -17.608649 10.050000
19906 4 23.019623 -14.776650 10.050000
19907 4 23.422708 -15.490552 10.050000
19908 4 24.269769 -12.658553 10.050000
19909 4 24.672853 -13.372455 10.050000
19910 4 25.519914 -10.540455 10.050000
19911 4 25.922999 -11.254358 10.050000
19912 4 26.770060 -8.422358 10.050000
19913 4 27.173144 -9.136260 10.050000
19914 4 28.020206 -6.304261 10.050000
19915 4 28.423290 -7.018163 10.050000
19916 4 29.270351 -4.186164 10.050000
19917 4 29.673436 -4.900066 10.050000
19918 4 30.520497 -2.068067 10.050000
19919 4 30.923581 -2.781969 10.050000
19920 4 31.770643 0.050031 10.050000
19921 4 32.173727 -0.663871 10.050000
19922 4 33.020788 2.168128 10.050000
19923 4 33.423873 1.454226 10.050000
19924 4 34.270934 4.286225 10.050000
19925 4 34.674018 3.572323 10.050000
19926 4 35.521079 6.404322 10.050000
19927 4 35.924164 5.690420 10.050000
19928 4 36.771225 8.522420 10.050000
19929 4 37.174310 7.808517 10.050000
19930 4 38.021371 10.640517 10.050000
19931 4 38.424455 9.926615 10.050000
19932 4 39.271516 12.758614 10.050000
19933 4 39.674601 12.044712 10.050000
19934 4 40.521662 14.876711 10.050000
19935 4 40.924746 14.162809 10.050000
19936 4 41.771808 16.994809 10.050000
19937 4 42.174892 16.280906 10.050000
19938 4 43.021953 19.112906 10.050000
19939 4 43.425038 18.399004 10.050000
19940 4 44.272099 21.231003 10.050000
19941 4 44.675183 20.517101 10.050000
19942 4 45.522245 23.349100 10.050000
19943 4 45.925329 22.635198 10.050000
19944 4 46.772390 25.467198 10.050000
19945 4 47.175475 24.753295 10.050000
19946 4 48.022536 27.585295 10.050000
19947 4 48.425620 26.871393 10.050000
19948 4 49.272681 29.703392 10.050000
19949 4 49.675766 28.989490 10.050000
19950 4 50.522827 31.821489 10.050000
19951 4 50.925911 31.107587 10.050000
19952 4 51.772973 33.939586 10.050000
19953 4 52.176057 33.225684 10.050000
19954 4 53.023118 36.057684 10.050000
19955 4 53.426203 35.343782 10.050000
19956 4 54.273264 38.175781 10.050000
19957 4 54.676348 37.461879 10.050000
19958 4 55.523410 40.293878 10.050000
19959 4 55.926494 39.579976 10.050000
19960 4 56.773555 42.411975 10.050000
19961 4 57.176640 41.698073 10.050000
19962 4 58.023701 44.530073 10.050000
19963 4 58.426785 43.816170 10.050000
19964 4 59.273847 46.648170 10.050000
19965 4 59.676931 45.934268 10.050000
19966 4 0.476109 -57.162204 10.050000
19967 4 0.879194 -57.876106 10.050000
19968 4 1.726255 -55.044107 10.050000
19969 4 2.129339 -55.758009 10.050000
19970 4 2.976401 -52.926009 10.050000
19971 4 3.379485 -53.639912 10.050000
19972 4 4.226546 -50.807912 10.050000
19973 4 4.629631 -51.521814 10.050000
19974 4 5.476692 -48.689815 10.050000
19975 4 5.879776 -49.403717 10.050000
19976 4 6.726837 -46.571718 10.050000
19977 4 7.129922 -47.285620 10.050000
19978 4 7.976983 -44.453620 10.050000
19979 4 8.380068 -45.167523 10.050000
19980 4 9.227129 -42.335523 10.050000
19981 4 9.630213 -43.049425 10.050000
19982 4 10.477274 -40.217426 10.050000
19983 4 10.880359 -40.931328 10.050000
19984 4 11.727420 -38.099329 10.050000
19985 4 12.130504 -38.813231 10.050000
19986 4 12.977566 -35.981232 10.050000
19987 4 13.380650 -36.695134 10.050000
19988 4 14.227711 -33.863134 10.050000
19989 4 14.630796 -34.577036 10.050000
19990 4 15.477857 -31.745037 10.050000
19991 4 15.880941 -32.458939 10.050000
19992 4 16.728003 -29.626940 10.050000
19993 4 17.131087 -30.340842 10.050000
19994 4 17.978148 -27.508843 10.050000
19995 4 18.381233 -28.222745 10.050000
19996 4 19.228294 -25.390745 10.050000
19997 4 19.631378 -26.104648 10.050000
19998 4 20.478439 -23.272648 10.050000
19999 4 20.881524 -23.986550 10.050000
20000 4 21.728585 -21.154551 10.050000
20001 4 22.131669 -21.868453 10.050000
20002 4 22.978731 -19.036454 10.050000
20003 4 23.381815 -19.750356 10.050000
20004 4 24.228876 -16.918356 10.050000
20005 4 24.631961 -17.632259 10.050000
20006 4 25.479022 -14.800259 10.050000
20007 4 25.882106 -15.514161 10.050000
20008 4 26.729168 -12.682162 10.050000
20009 4 27.132252 -13.396064 10.050000
20010 4 27.979313 -10.564065 10.050000
20011 4 28.382398 -11.277967 10.050000
20012 4 29.229459 -8.445967 10.050000
20013 4 29.632543 -9.159870 10.050000
20014 4 30.479605 -6.327870 10.050000
20015 4 30.882689 -7.041772 10.050000
20016 4 31.729750 -4.209773 10.050000
20017 4 32.132835 -4.923675 10.050000
20018 4 32.979896 -2.091676 10.050000
20019 4 33.382980 -2.805578 10.050000
20020 4 34.230041 0.026421 10.050000
20021 4 34.633126 -0.687481 10.050000
20022 4 35.480187 2.144519 10.050000
20023 4 35.883271 1.430617 10.050000
20024 4 36.730333 4.262616 10.050000
20025 4 37.133417 3.548714 10.050000
20026 4 37.980478 6.380713 10.050000
20027 4 38.383563 5.666811 10.050000
20028 4 39.230624 8.498810 10.050000
20029 4 39.633708 7.784908 10.050000
20030 4 40.480770 10.616908 10.050000
20031 4 40.883854 9.903005 10.050000
20032 4 41.730915 12.735005 10.050000
20033 4 42.134000 12.021103 10.050000
20034 4 42.981061 14.853102 10.050000
20035 4 43.384145 14.139200 10.050000
20036 4 44.231206 16.971199 10.050000
20037 4 44.634291 16.257297 10.050000
20038 4 45.481352 19.089297 10.050000
20039 4 45.884437 18.375394 10.050000
20040 4 46.731498 21.207394 10.050000
20041 4 47.134582 20.493492 10.050000
20042 4 47.981643 23.325491 10.050000
20043 4 48.384728 22.611589 10.050000
20044 4 49.231789 25.443588 10.050000
20045 4 49.634873 24.729686 10.050000
20046 4 50.481935 27.561686 10.050000
20047 4 50.885019 26.847783 10.050000
20048 4 51.732080 29.679783 10.050000
20049 4 52.135165 28.965881 10.050000
20050 4 52.982226 31.797880 10.050000
20051 4 53.385310 31.083978 10.050000
20052 4 54.232372 33.915977 10.050000
20053 4 54.635456 33.202075 10.050000
20054 4 55.482517 36.034074 10.050000
20055 4 55.885602 35.320172 10.050000
20056 4 56.732663 38.152172 10.050000
20057 4 57.135747 37.438270 10.050000
20058 4 57.982808 40.270269 10.050000
20059 4 58.385893 39.556367 10.050000
20060 4 59.232954 42.388366 10.050000
20061 4 59.636038 41.674464 10.050000
20062 4 60.483100 44.506463 10.050000
20063 4 60.886184 43.792561 10.050000
20064 4 2.935508 -57.185813 10.050000
20065 4 3.338593 -57.899715 10.050000
20066 4 4.185654 -55.067716 10.050000
20067 4 4.588738 -55.781618 10.050000
20068 4 5.435799 -52.949619 10.050000
20069 4 5.838884 -53.663521 10.050000
20070 4 6.685945 -50.831521 10.050000
20071 4 7.089029 -51.545424 10.050000
20072 4 7.936091 -48.713424 10.050000
20073 4 8.339175 -49.427326 10.050000
20074 4 9.186236 -46.595327 10.050000
20075 4 9.589321 -47.309229 10.050000
20076 4 10.436382 -44.477230 10.050000
20077 4 10.839466 -45.191132 10.050000
20078 4 11.686528 -42.359133 10.050000
20079 4 12.089612 -43.073035 10.050000
20080 4 12.936673 -40.241035 10.050000
20081 4 13.339758 -40.954937 10.050000
20082 4 14.186819 -38.122938 10.050000
20083 4 14.589903 -38.836840 10.050000
20084 4 15.436964 -36.004841 10.050000
20085 4 15.840049 -36.718743 10.050000
20086 4 16.687110 -33.886744 10.050000
20087 4 17.090195 -34.600646 10.050000
20088 4 17.937256 -31.768646 10.050000
20089 4 18.340340 -32.482548 10.050000
20090 4 19.187401 -29.650549 10.050000
20091 4 19.590486 -30.364451 10.050000
20092 4 20.437547 -27.532452 10.050000
20093 4 20.840631 -28.246354 10.050000
20094 4 21.687693 -25.414355 10.050000
20095 4 22.090777 -26.128257 10.050000
20096 4 22.937838 -23.296257 10.050000
20097 4 23.340923 -24.010160 10.050000
20098 4 24.187984 -21.178160 10.050000
20099 4 24.591068 -21.892062 10.050000
20100 4 25.438130 -19.060063 10.050000
20101 4 25.841214 -19.773965 10.050000
20102 4 26.688275 -16.941966 10.050000
20103 4 27.091360 -17.655868 10.050000
20104 4 27.938421 -14.823868 10.050000
20105 4 28.341505 -15.537771 10.050000
20106 4 29.188566 -12.705771 10.050000
20107 4 29.591651 -13.419673 10.050000
20108 4 30.438712 -10.587674 10.050000
20109 4 30.841796 -11.301576 10.050000
20110 4 31.688858 -8.469577 10.050000
20111 4 32.091942 -9.183479 10.050000
20112 4 32.939003 -6.351480 10.050000
20113 4 33.342088 -7.065382 10.050000
20114 4 34.189149 -4.233382 10.050000
20115 4 34.592233 -4.947284 10.050000
20116 4 35.439295 -2.115285 10.050000
20117 4 35.842379 -2.829187 10.050000
20118 4 36.689440 0.002812 10.050000
20119 4 37.092525 -0.711090 10.050000
20120 4 37.939586 2.120909 10.050000
20121 4 38.342670 1.407007 10.050000
20122 4 39.189732 4.239007 10.050000
20123 4 39.592816 3.525105 10.050000
20124 4 40.439877 6.357104 10.050000
20125 4 40.842962 5.643202 10.050000
20126 4 41.690023 8.475201 10.050000
20127 4 42.093107 7.761299 10.050000
20128 4 42.940168 10.593298 10.050000
20129 4 43.343253 9.879396 10.050000
20130 4 44.190314 12.711396 10.050000
20131 4 44.593398 11.997493 10.050000
20132 4 45.440460 14.829493 10.050000
20133 4 45.843544 14.115591 10.050000
20134 4 46.690605 16.947590 10.050000
20135 4 47.093690 16.233688 10.050000
20136 4 47.940751 19.065687 10.050000
20137 4 48.343835 18.351785 10.050000
20138 4 49.190897 21.183785 10.050000
20139 4 49.593981 20.469882 10.050000
20140 4 50.441042 23.301882 10.050000
20141 4 50.844127 22.587980 10.050000
20142 4 51.691188 25.419979 10.050000
20143 4 52.094272 24.706077 10.050000
20144 4 52.941333 27.538076 10.050000
20145 4 53.344418 26.824174 10.050000
20146 4 54.191479 29.656173 10.050000
20147 4 54.594564 28.942271 10.050000
20148 4 55.441625 31.774271 10.050000
20149 4 55.844709 31.060369 10.050000
20150 4 56.691770 33.892368 10.050000
20151 4 57.094855 33.178466 10.050000
20152 4 57.941916 36.010465 10.050000
20153 4 58.345000 35.296563 10.050000
20154 4 59.192062 38.128562 10.050000
20155 4 59.595146 37.414660 10.050000
20156 4 60.442207 40.246660 10.050000
20157 4 60.845292 39.532757 10.050000
20158 4 61.692353 42.364757 10.050000
20159 4 62.095437 41.650855 10.050000
20160 4 5.394907 -57.209422 10.050000
20161 4 5.797991 -57.923325 10.050000
20162 4 6.645053 -55.091325 10.050000
20163 4 7.048137 -55.805227 10.050000
20164 4 7.895198 -52.973228 10.050000
20165 4 8.298283 -53.687130 10.050000
20166 4 9.145344 -50.855131 10.050000
20167 4 9.548428 -51.569033 10.050000
20168 4 10.395490 -48.737033 10.050000
20169 4 10.798574 -49.450936 10.050000
20170 4 11.645635 -46.618936 10.050000
20171 4 12.048720 -47.332838 10.050000
20172 4 12.895781 -44.500839 10.050000
20173 4 13.298865 -45.214741 10.050000
20174 4 14.145926 -42.382742 10.050000
20175 4 14.549011 -43.096644 10.050000
20176 4 15.396072 -40.264645 10.050000
20177 4 15.799156 -40.978547 10.050000
20178 4 16.646218 -38.146547 10.050000
20179 4 17.049302 -38.860449 10.050000
20180 4 17.896363 -36.028450 10.050000
20181 4 18.299448 -36.742352 10.050000
20182 4 19.146509 -33.910353 10.050000
20183 4 19.549593 -34.624255 10.050000
20184 4 20.396655 -31.792256 10.050000
20185 4 20.799739 -32.506158 10.050000
20186 4 21.646800 -29.674158 10.050000
20187 4 22.049885 -30.388061 10.050000
20188 4 22.896946 -27.556061 10.050000
20189 4 23.300030 -28.269963 10.050000
20190 4 24.147091 -25.437964 10.050000
20191 4 24.550176 -26.151866 10.050000
20192 4 25.397237 -23.319867 10.050000
20193 4 25.800322 -24.033769 10.050000
20194 4 26.647383 -21.201769 10.050000
20195 4 27.050467 -21.915672 10.050000
20196 4 27.897528 -19.083672 10.050000
20197 4 28.300613 -19.797574 10.050000
20198 4 29.147674 -16.965575 10.050000
20199 4 29.550758 -17.679477 10.050000
20200 4 30.397820 -14.847478 10.050000
20201 4 30.800904 -15.561380 10.050000
20202 4 31.647965 -12.729380 10.050000
20203 4 32.051050 -13.443283 10.050000
20204 4 32.898111 -10.611283 10.050000
20205 4 33.301195 -11.325185 10.050000
20206 4 34.148257 -8.493186 10.050000
20207 4 34.551341 -9.207088 10.050000
20208 4 35.398402 -6.375089 10.050000
20209 4 35.801487 -7.088991 10.050000
20210 4 36.648548 -4.256992 10.050000
20211 4 37.051632 -4.970894 10.050000
20212 4 37.898693 -2.138894 10.050000
20213 4 38.301778 -2.852796 10.050000
20214 4 39.148839 -0.020797 10.050000
20215 4 39.551923 -0.734699 10.050000
20216 4 40.398985 2.097300 10.050000
20217 4 40.802069 1.383398 10.050000
20218 4 41.649130 4.215397 10.050000
20219 4 42.052215 3.501495 10.050000
20220 4 42.899276 6.333495 10.050000
20221 4 43.302360 5.619592 10.050000
20222 4 44.149422 8.451592 10.050000
20223 4 44.552506 7.737690 10.050000
20224 4 45.399567 10.569689 10.050000
20225 4 45.802652 9.855787 10.050000
20226 4 46.649713 12.687786 10.050000
20227 4 47.052797 11.973884 10.050000
20228 4 47.899859 14.805884 10.050000
20229 4 48.302943 14.091981 10.050000
20230 4 49.150004 16.923981 10.050000
20231 4 49.553089 16.210079 10.050000
20232 4 50.400150 19.042078 10.050000
20233 4 50.803234 18.328176 10.050000
20234 4 51.650295 21.160175 10.050000
20235 4 52.053380 20.446273 10.050000
20236 4 52.900441 23.278273 10.050000
20237 4 53.303525 22.564370 10.050000
20238 4 54.150587 25.396370 10.050000
20239 4 54.553671 24.682468 10.050000
20240 4 55.400732 27.514467 10.050000
20241 4 55.803817 26.800565 10.050000
20242 4 56.650878 29.632564 10.050000
20243 4 57.053962 28.918662 10.050000
20244 4 57.901024 31.750661 10.050000
20245 4 58.304108 31.036759 10.050000
20246 4 59.151169 33.868759 10.050000
20247 4 59.554254 33.154857 10.050000
20248 4 60.401315 35.986856 10.050000
20249 4 60.804399 35.272954 10.050000
20250 4 61.651460 38.104953 10.050000
20251 4 62.054545 37.391051 10.050000
20252 4 62.901606 40.223050 10.050000
20253 4 63.304690 39.509148 10.050000
20254 4 64.151752 42.341148 10.050000
20255 4 64.554836 41.627245 10.050000
20256 4 7.854306 -57.233032 10.050000
20257 4 8.257390 -57.946934 10.050000
20258 4 9.104451 -55.114934 10.050000
20259 4 9.507536 -55.828837 10.050000
20260 4 10.354597 -52.996837 10.050000
20261 4 10.757681 -53.710739 10.050000
20262 4 11.604743 -50.878740 10.050000
20263 4 12.007827 -51.592642 10.050000
20264 4 12.854888 -48.760643 10.050000
20265 4 13.257973 -49.474545 10.050000
20266 4 14.105034 -46.642545 10.050000
20267 4 14.508118 -47.356448 10.050000
20268 4 15.355180 -44.524448 10.050000
20269 4 15.758264 -45.238350 10.050000
20270 4 16.605325 -42.406351 10.050000
20271 4 17.008410 -43.120253 10.050000
20272 4 17.855471 -40.288254 10.050000
20273 4 18.258555 -41.002156 10.050000
20274 4 19.105617 -38.170157 10.050000
20275 4 19.508701 -38.884059 10.050000
20276 4 20.355762 -36.052059 10.050000
20277 4 20.758847 -36.765961 10.050000
20278 4 21.605908 -33.933962 10.050000
20279 4 22.008992 -34.647864 10.050000
20280 4 22.856053 -31.815865 10.050000
20281 4 23.259138 -32.529767 10.050000
20282 4 24.106199 -29.697768 10.050000
20283 4 24.509283 -30.411670 10.050000
20284 4 25.356345 -27.579670 10.050000
20285 4 25.759429 -28.293573 10.050000
20286 4 26.606490 -25.461573 10.050000
20287 4 27.009575 -26.175475 10.050000
20288 4 27.856636 -23.343476 10.050000
20289 4 28.259720 -24.057378 10.050000
20290 4 29.106782 -21.225379 10.050000
20291 4 29.509866 -21.939281 10.050000
20292 4 30.356927 -19.107281 10.050000
20293 4 30.760012 -19.821184 10.050000
20294 4 31.607073 -16.989184 10.050000
20295 4 32.010157 -17.703086 10.050000
20296 4 32.857218 -14.871087 10.050000
20297 4 33.260303 -15.584989 10.050000
20298 4 34.107364 -12.752990 10.050000
20299 4 34.510449 -13.466892 10.050000
20300 4 35.357510 -10.634892 10.050000
20301 4 35.760594 -11.348795 10.050000
20302 4 36.607655 -8.516795 10.050000
20303 4 37.010740 -9.230697 10.050000
20304 4 37.857801 -6.398698 10.050000
20305 4 38.260885 -7.112600 10.050000
20306 4 39.107947 -4.280601 10.050000
20307 4 39.511031 -4.994503 10.050000
20308 4 40.358092 -2.162504 10.050000
20309 4 40.761177 -2.876406 10.050000
20310 4 41.608238 -0.044406 10.050000
20311 4 42.011322 -0.758308 10.050000
20312 4 42.858384 2.073691 10.050000
20313 4 43.261468 1.359789 10.050000
20314 4 44.108529 4.191788 10.050000
20315 4 44.511614 3.477886 10.050000
20316 4 45.358675 6.309885 10.050000
20317 4 45.761759 5.595983 10.050000
20318 4 46.608820 8.427983 10.050000
20319 4 47.011905 7.714080 10.050000
20320 4 47.858966 10.546080 10.050000
20321 4 48.262050 9.832178 10.050000
20322 4 49.109112 12.664177 10.050000
20323 4 49.512196 11.950275 10.050000
20324 4 50.359257 14.782274 10.050000
20325 4 50.762342 14.068372 10.050000
20326 4 51.609403 16.900372 10.050000
20327 4 52.012487 16.186469 10.050000
20328 4 52.859549 19.018469 10.050000
20329 4 53.262633 18.304567 10.050000
20330 4 54.109694 21.136566 10.050000
20331 4 54.512779 20.422664 10.050000
20332 4 55.359840 23.254663 10.050000
20333 4 55.762924 22.540761 10.050000
20334 4 56.609985 25.372760 10.050000
20335 4 57.013070 24.658858 10.050000
20336 4 57.860131 27.490858 10.050000
20337 4 58.263216 26.776956 10.050000
20338 4 59.110277 29.608955 10.050000
20339 4 59.513361 28.895053 10.050000
20340 4 60.360422 31.727052 10.050000
20341 4 60.763507 31.013150 10.050000
20342 4 61.610568 33.845149 10.050000
20343 4 62.013652 33.131247 10.050000
20344 4 62.860714 35.963247 10.050000
20345 4 63.263798 35.249345 10.050000
20346 4 64.110859 38.081344 10.050000
20347 4 64.513944 37.367442 10.050000
20348 4 65.361005 40.199441 10.050000
20349 4 65.764089 39.485539 10.050000
20350 4 10.313705 -57.256641 10.050000
20351 4 10.716789 -57.970543 10.050000
20352 4 11.563850 -55.138544 10.050000
20353 4 11.966935 -55.852446 10.050000
20354 4 12.813996 -53.020446 10.050000
20355 4 13.217080 -53.734349 10.050000
20356 4 14.064142 -50.902349 10.050000
20357 4 14.467226 -51.616251 10.050000
20358 4 15.314287 -48.784252 10.050000
20359 4 15.717372 -49.498154 10.050000
20360 4 16.564433 -46.666155 10.050000
20361 4 16.967517 -47.380057 10.050000
20362 4 17.814578 -44.548058 10.050000
20363 4 18.217663 -45.261960 10.050000
20364 4 19.064724 -42.429960 10.050000
20365 4 19.467808 -43.143862 10.050000
20366 4 20.314870 -40.311863 10.050000
20367 4 20.717954 -41.025765 10.050000
20368 4 21.565015 -38.193766 10.050000
20369 4 21.968100 -38.907668 10.050000
20370 4 22.815161 -36.075669 10.050000
20371 4 23.218245 -36.789571 10.050000
20372 4 24.065307 -33.957571 10.050000
20373 4 24.468391 -34.671474 10.050000
20374 4 25.315452 -31.839474 10.050000
20375 4 25.718537 -32.553376 10.050000
20376 4 26.565598 -29.721377 10.050000
20377 4 26.968682 -30.435279 10.050000
20378 4 27.815744 -27.603280 10.050000
20379 4 28.218828 -28.317182 10.050000
20380 4 29.065889 -25.485182 10.050000
20381 4 29.468974 -26.199085 10.050000
20382 4 30.316035 -23.367085 10.050000
20383 4 30.719119 -24.080987 10.050000
20384 4 31.566180 -21.248988 10.050000
20385 4 31.969265 -21.962890 10.050000
20386 4 32.816326 -19.130891 10.050000
20387 4 33.219410 -19.844793 10.050000
20388 4 34.066472 -17.012793 10.050000
20389 4 34.469556 -17.726696 10.050000
20390 4 35.316617 -14.894696 10.050000
20391 4 35.719702 -15.608598 10.050000
20392 4 36.566763 -12.776599 10.050000
20393 4 36.969847 -13.490501 10.050000
20394 4 37.816909 -10.658502 10.050000
20395 4 38.219993 -11.372404 10.050000
20396 4 39.067054 -8.540405 10.050000
20397 4 39.470139 -9.254307 10.050000
20398 4 40.317200 -6.422307 10.050000
20399 4 40.720284 -7.136209 10.050000
20400 4 41.567345 -4.304210 10.050000
20401 4 41.970430 -5.018112 10.050000
20402 4 42.817491 -2.186113 10.050000
20403 4 43.220575 -2.900015 10.050000
20404 4 44.067637 -0.068016 10.050000
20405 4 44.470721 -0.781918 10.050000
20406 4 45.317782 2.050082 10.050000
20407 4 45.720867 1.336179 10.050000
20408 4 46.567928 4.168179 10.050000
20409 4 46.971012 3.454277 10.050000
20410 4 47.818074 6.286276 10.050000
20411 4 48.221158 5.572374 10.050000
20412 4 49.068219 8.404373 10.050000
20413 4 49.471304 7.690471 10.050000
20414 4 50.318365 10.522471 10.050000
20415 4 50.721449 9.808568 10.050000
20416 4 51.568511 12.640568 10.050000
20417 4 51.971595 11.926666 10.050000
20418 4 52.818656 14.758665 10.050000
20419 4 53.221741 14.044763 10.050000
20420 4 54.068802 16.876762 10.050000
20421 4 54.471886 16.162860 10.050000
20422 4 55.318947 18.994860 10.050000
20423 4 55.722032 18.280957 10.050000
20424 4 56.569093 21.112957 10.050000
20425 4 56.972177 20.399055 10.050000
20426 4 57.819239 23.231054 10.050000
20427 4 58.222323 22.517152 10.050000
20428 4 59.069384 25.349151 10.050000
20429 4 59.472469 24.635249 10.050000
20430 4 60.319530 27.467248 10.050000
20431 4 60.722614 26.753346 10.050000
20432 4 61.569676 29.585346 10.050000
20433 4 61.972760 28.871444 10.050000
20434 4 62.819821 31.703443 10.050000
20435 4 63.222906 30.989541 10.050000
20436 4 64.069967 33.821540 10.050000
20437 4 64.473051 33.107638 10.050000
20438 4 65.320112 35.939637 10.050000
20439 4 65.723197 35.225735 10.050000
20440 4 66.570258 38.057735 10.050000
20441 4 66.973343 37.343832 10.050000
20442 4 12.773103 -57.280250 10.050000
20443 4 13.176188 -57.994152 10.050000
20444 4 14.023249 -55.162153 10.050000
20445 4 14.426334 -55.876055 10.050000
20446 4 15.273395 -53.044056 10.050000
20447 4 15.676479 -53.757958 10.050000
20448 4 16.523540 -50.925958 10.050000
20449 4 16.926625 -51.639861 10.050000
20450 4 17.773686 -48.807861 10.050000
20451 4 18.176770 -49.521763 10.050000
20452 4 19.023832 -46.689764 10.050000
20453 4 19.426916 -47.403666 10.050000
20454 4 20.273977 -44.571667 10.050000
20455 4 20.677062 -45.285569 10.050000
20456 4 21.524123 -42.453570 10.050000
20457 4 21.927207 -43.167472 10.050000
20458 4 22.774269 -40.335472 10.050000
20459 4 23.177353 -41.049374 10.050000
20460 4 24.024414 -38.217375 10.050000
20461 4 24.427499 -38.931277 10.050000
20462 4 25.274560 -36.099278 10.050000
20463 4 25.677644 -36.813180 10.050000
20464 4 26.524705 -33.981181 10.050000
20465 4 26.927790 -34.695083 10.050000
20466 4 27.774851 -31.863083 10.050000
20467 4 28.177935 -32.576986 10.050000
20468 4 29.024997 -29.744986 10.050000
20469 4 29.428081 -30.458888 10.050000
20470 4 30.275142 -27.626889 10.050000
20471 4 30.678227 -28.340791 10.050000
20472 4 31.525288 -25.508792 10.050000
20473 4 31.928372 -26.222694 10.050000
20474 4 32.775434 -23.390694 10.050000
20475 4 33.178518 -24.104597 10.050000
20476 4 34.025579 -21.272597 10.050000
20477 4 34.428664 -21.986499 10.050000
20478 4 35.275725 -19.154500 10.050000
20479 4 35.678809 -19.868402 10.050000
20480 4 36.525870 -17.036403 10.050000
20481 4 36.928955 -17.750305 10.050000
20482 4 37.776016 -14.918305 10.050000
20483 4 38.179101 -15.632208 10.050000
20484 4 39.026162 -12.800208 10.050000
20485 4 39.429246 -13.514110 10.050000
20486 4 40.276307 -10.682111 10.050000
20487 4 40.679392 -11.396013 10.050000
20488 4 41.526453 -8.564014 10.050000
20489 4 41.929537 -9.277916 10.050000
20490 4 42.776599 -6.445917 10.050000
20491 4 43.179683 -7.159819 10.050000
20492 4 44.026744 -4.327819 10.050000
20493 4 44.429829 -5.041721 10.050000
20494 4 45.276890 -2.209722 10.050000
20495 4 45.679974 -2.923624 10.050000
20496 4 46.527036 -0.091625 10.050000
20497 4 46.930120 -0.805527 10.050000
20498 4 47.777181 2.026472 10.050000
20499 4 48.180266 1.312570 10.050000
20500 4 49.027327 4.144570 10.050000
20501 4 49.430411 3.430667 10.050000
20502 4 50.277472 6.262667 10.050000
20503 4 50.680557 5.548765 10.050000
20504 4 51.527618 8.380764 10.050000
20505 4 51.930702 7.666862 10.050000
20506 4 52.777764 10.498861 10.050000
20507 4 53.180848 9.784959 10.050000
20508 4 54.027909 12.616959 10.050000
20509 4 54.430994 11.903056 10.050000
20510 4 55.278055 14.735056 10.050000
20511 4 55.681139 14.021154 10.050000
20512 4 56.528201 16.853153 10.050000
20513 4 56.931285 16.139251 10.050000
20514 4 57.778346 18.971250 10.050000
20515 4 58.181431 18.257348 10.050000
20516 4 59.028492 21.089348 10.050000
20517 4 59.431576 20.375445 10.050000
20518 4 60.278638 23.207445 10.050000
20519 4 60.681722 22.493543 10.050000
20520 4 61.528783 25.325542 10.050000
20521 4 61.931868 24.611640 10.050000
20522 4 62.778929 27.443639 10.050000
20523 4 63.182013 26.729737 10.050000
20524 4 64.029074 29.561736 10.050000
20525 4 64.432159 28.847834 10.050000
20526 4 65.279220 31.679834 10.050000
20527 4 65.682304 30.965932 10.050000
20528 4 66.529366 33.797931 10.050000
20529 4 66.932450 33.084029 10.050000
20530 4 67.779511 35.916028 10.050000
20531 4 68.182596 35.202126 10.050000
20532 4 15.232502 -57.303859 10.050000
20533 4 15.635587 -58.017762 10.050000
20534 4 16.482648 -55.185762 10.050000
20535 4 16.885732 -55.899664 10.050000
20536 4 17.732794 -53.067665 10.050000
20537 4 18.135878 -53.781567 10.050000
20538 4 18.982939 -50.949568 10.050000
20539 4 19.386024 -51.663470 10.050000
20540 4 20.233085 -48.831471 10.050000
20541 4 20.636169 -49.545373 10.050000
20542 4 21.483230 -46.713373 10.050000
20543 4 21.886315 -47.427275 10.050000
20544 4 22.733376 -44.595276 10.050000
20545 4 23.136460 -45.309178 10.050000
20546 4 23.983522 -42.477179 10.050000
20547 4 24.386606 -43.191081 10.050000
20548 4 25.233667 -40.359082 10.050000
20549 4 25.636752 -41.072984 10.050000
20550 4 26.483813 -38.240984 10.050000
20551 4 26.886897 -38.954886 10.050000
20552 4 27.733959 -36.122887 10.050000
20553 4 28.137043 -36.836789 10.050000
20554 4 28.984104 -34.004790 10.050000
20555 4 29.387189 -34.718692 10.050000
20556 4 30.234250 -31.886693 10.050000
20557 4 30.637334 -32.600595 10.050000
20558 4 31.484396 -29.768595 10.050000
20559 4 31.887480 -30.482498 10.050000
20560 4 32.734541 -27.650498 10.050000
20561 4 33.137626 -28.364400 10.050000
20562 4 33.984687 -25.532401 10.050000
20563 4 34.387771 -26.246303 10.050000
20564 4 35.234832 -23.414304 10.050000
20565 4 35.637917 -24.128206 10.050000
20566 4 36.484978 -21.296206 10.050000
20567 4 36.888062 -22.010109 10.050000
20568 4 37.735124 -19.178109 10.050000
20569 4 38.138208 -19.892011 10.050000
20570 4 38.985269 -17.060012 10.050000
20571 4 39.388354 -17.773914 10.050000
20572 4 40.235415 -14.941915 10.050000
20573 4 40.638499 -15.655817 10.050000
20574 4 41.485561 -12.823818 10.050000
20575 4 41.888645 -13.537720 10.050000
20576 4 42.735706 -10.705720 10.050000
20577 4 43.138791 -11.419622 10.050000
20578 4 43.985852 -8.587623 10.050000
20579 4 44.388936 -9.301525 10.050000
20580 4 45.235997 -6.469526 10.050000
20581 4 45.639082 -7.183428 10.050000
20582 4 46.486143 -4.351429 10.050000
20583 4 46.889228 -5.065331 10.050000
20584 4 47.736289 -2.233331 10.050000
20585 4 48.139373 -2.947233 10.050000
20586 4 48.986434 -0.115234 10.050000
20587 4 49.389519 -0.829136 10.050000
20588 4 50.236580 2.002863 10.050000
20589 4 50.639664 1.288961 10.050000
20590 4 51.486726 4.120960 10.050000
20591 4 51.889810 3.407058 10.050000
20592 4 52.736871 6.239058 10.050000
20593 4 53.139956 5.525155 10.050000
20594 4 53.987017 8.357155 10.050000
20595 4 54.390101 7.643253 10.050000
20596 4 55.237163 10.475252 10.050000
20597 4 55.640247 9.761350 10.050000
20598 4 56.487308 12.593349 10.050000
20599 4 56.890393 11.879447 10.050000
20600 4 57.737454 14.711447 10.050000
20601 4 58.140538 13.997544 10.050000
20602 4 58.987599 16.829544 10.050000
20603 4 59.390684 16.115642 10.050000
20604 4 60.237745 18.947641 10.050000
20605 4 60.640829 18.233739 10.050000
20606 4 61.487891 21.065738 10.050000
20607 4 61.890975 20.351836 10.050000
20608 4 62.738036 23.183835 10.050000
20609 4 63.141121 22.469933 10.050000
20610 4 63.988182 25.301933 10.050000
20611 4 64.391266 24.588031 10.050000
20612 4 65.238328 27.420030 10.050000
20613 4 65.641412 26.706128 10.050000
20614 4 66.488473 29.538127 10.050000
20615 4 66.891558 28.824225 10.050000
20616 4 67.738619 31.656224 10.050000
20617 4 68.141703 30.942322 10.050000
20618 4 68.988765 33.774322 10.050000
20619 4 69.391849 33.060419 10.050000
20620 4 17.691901 -57.327469 10.050000
20621 4 18.094986 -58.041371 10.050000
20622 4 18.942047 -55.209371 10.050000
20623 4 19.345131 -55.923274 10.050000
20624 4 20.192192 -53.091274 10.050000
20625 4 20.595277 -53.805176 10.050000
20626 4 21.442338 -50.973177 10.050000
20627 4 21.845422 -51.687079 10.050000
20628 4 22.692484 -48.855080 10.050000
20629 4 23.095568 -49.568982 10.050000
20630 4 23.942629 -46.736983 10.050000
20631 4 24.345714 -47.450885 10.050000
20632 4 25.192775 -44.618885 10.050000
20633 4 25.595859 -45.332787 10.050000
20634 4 26.442921 -42.500788 10.050000
20635 4 26.846005 -43.214690 10.050000
20636 4 27.693066 -40.382691 10.050000
20637 4 28.096151 -41.096593 10.050000
20638 4 28.943212 -38.264594 10.050000
20639 4 29.346296 -38.978496 10.050000
20640 4 30.193357 -36.146496 10.050000
20641 4 30.596442 -36.860399 10.050000
20642 4 31.443503 -34.028399 10.050000
20643 4 31.846587 -34.742301 10.050000
20644 4 32.693649 -31.910302 10.050000
20645 4 33.096733 -32.624204 10.050000
20646 4 33.943794 -29.792205 10.050000
20647 4 34.346879 -30.506107 10.050000
20648 4 35.193940 -27.674107 10.050000
20649 4 35.597024 -28.388010 10.050000
20650 4 36.444086 -25.556010 10.050000
20651 4 36.847170 -26.269912 10.050000
20652 4 37.694231 -23.437913 10.050000
20653 4 38.097316 -24.151815 10.050000
20654 4 38.944377 -21.319816 10.050000
20655 4 39.347461 -22.033718 10.050000
20656 4 40.194523 -19.201718 10.050000
20657 4 40.597607 -19.915621 10.050000
20658 4 41.444668 -17.083621 10.050000
20659 4 41.847753 -17.797523 10.050000
20660 4 42.694814 -14.965524 10.050000
20661 4 43.097898 -15.679426 10.050000
20662 4 43.944959 -12.847427 10.050000
20663 4 44.348044 -13.561329 10.050000
20664 4 45.195105 -10.729330 10.050000
20665 4 45.598189 -11.443232 10.050000
20666 4 46.445251 -8.611232 10.050000
20667 4 46.848335 -9.325134 10.050000
20668 4 47.695396 -6.493135 10.050000
20669 4 48.098481 -7.207037 10.050000
20670 4 48.945542 -4.375038 10.050000
20671 4 49.348626 -5.088940 10.050000
20672 4 50.195688 -2.256941 10.050000
20673 4 50.598772 -2.970843 10.050000
20674 4 51.445833 -0.138843 10.050000
20675 4 51.848918 -0.852746 10.050000
20676 4 52.695979 1.979254 10.050000
20677 4 53.099063 1.265352 10.050000
20678 4 53.946124 4.097351 10.050000
20679 4 54.349209 3.383449 10.050000
20680 4 55.196270 6.215448 10.050000
20681 4 55.599355 5.501546 10.050000
20682 4 56.446416 8.333546 10.050000
20683 4 56.849500 7.619643 10.050000
20684 4 57.696561 10.451643 10.050000
20685 4 58.099646 9.737741 10.050000
20686 4 58.946707 12.569740 10.050000
20687 4 59.349791 11.855838 10.050000
20688 4 60.196853 14.687837 10.050000
20689 4 60.599937 13.973935 10.050000
20690 4 61.446998 16.805935 10.050000
20691 4 61.850083 16.092032 10.050000
20692 4 62.697144 18.924032 10.050000
20693 4 63.100228 18.210130 10.050000
20694 4 63.947290 21.042129 10.050000
20695 4 64.350374 20.328227 10.050000
20696 4 65.197435 23.160226 10.050000
20697 4 65.600520 22.446324 10.050000
20698 4 66.447581 25.278323 10.050000
20699 4 66.850665 24.564421 10.050000
20700 4 67.697726 27.396421 10.050000
20701 4 68.100811 26.682519 10.050000
20702 4 68.947872 29.514518 10.050000
20703 4 69.350956 28.800616 10.050000
20704 4 20.151300 -57.351078 10.050000
20705 4 20.554384 -58.064980 10.050000
20706 4 21.401446 -55.232981 10.050000
20707 4 21.804530 -55.946883 10.050000
20708 4 22.651591 -53.114883 10.050000
20709 4 23.054676 -53.828786 10.050000
20710 4 23.901737 -50.996786 10.050000
20711 4 24.304821 -51.710688 10.050000
20712 4 25.151882 -48.878689 10.050000
20713 4 25.554967 -49.592591 10.050000
20714 4 26.402028 -46.760592 10.050000
20715 4 26.805113 -47.474494 10.050000
20716 4 27.652174 -44.642495 10.050000
20717 4 28.055258 -45.356397 10.050000
20718 4 28.902319 -42.524397 10.050000
20719 4 29.305404 -43.238299 10.050000
20720 4 30.152465 -40.406300 10.050000
20721 4 30.555549 -41.120202 10.050000
20722 4 31.402611 -38.288203 10.050000
20723 4 31.805695 -39.002105 10.050000
20724 4 32.652756 -36.170106 10.050000
20725 4 33.055841 -36.884008 10.050000
20726 4 33.902902 -34.052008 10.050000
20727 4 34.305986 -34.765911 10.050000
20728 4 35.153048 -31.933911 10.050000
20729 4 35.556132 -32.647813 10.050000
20730 4 36.403193 -29.815814 10.050000
20731 4 36.806278 -30.529716 10.050000
20732 4 37.653339 -27.697717 10.050000
20733 4 38.056423 -28.411619 10.050000
20734 4 38.903484 -25.579619 10.050000
20735 4 39.306569 -26.293522 10.050000
20736 4 40.153630 -23.461522 10.050000
20737 4 40.556714 -24.175424 10.050000
20738 4 41.403776 -21.343425 10.050000
20739 4 41.806860 -22.057327 10.050000
20740 4 42.653921 -19.225328 10.050000
20741 4 43.057006 -19.939230 10.050000
20742 4 43.904067 -17.107230 10.050000
20743 4 44.307151 -17.821133 10.050000
20744 4 45.154213 -14.989133 10.050000
20745 4 45.557297 -15.703035 10.050000
20746 4 46.404358 -12.871036 10.050000
20747 4 46.807443 -13.584938 10.050000
20748 4 47.654504 -10.752939 10.050000
20749 4 48.057588 -11.466841 10.050000
20750 4 48.904650 -8.634842 10.050000
20751 4 49.307734 -9.348744 10.050000
20752 4 50.154795 -6.516744 10.050000
20753 4 50.557880 -7.230646 10.050000
20754 4 51.404941 -4.398647 10.050000
20755 4 51.808025 -5.112549 10.050000
20756 4 52.655086 -2.280550 10.050000
20757 4 53.058171 -2.994452 10.050000
20758 4 53.905232 -0.162453 10.050000
20759 4 54.308316 -0.876355 10.050000
20760 4 55.155378 1.955645 10.050000
20761 4 55.558462 1.241742 10.050000
20762 4 56.405523 4.073742 10.050000
20763 4 56.808608 3.359840 10.050000
20764 4 57.655669 6.191839 10.050000
20765 4 58.058753 5.477937 10.050000
20766 4 58.905815 8.309936 10.050000
20767 4 59.308899 7.596034 10.050000
20768 4 60.155960 10.428034 10.050000
20769 4 60.559045 9.714131 10.050000
20770 4 61.406106 12.546131 10.050000
20771 4 61.809190 11.832229 10.050000
20772 4 62.656251 14.664228 10.050000
20773 4 63.059336 13.950326 10.050000
20774 4 63.906397 16.782325 10.050000
20775 4 64.309482 16.068423 10.050000
20776 4 65.156543 18.900422 10.050000
20777 4 65.559627 18.186520 10.050000
20778 4 66.406688 21.018520 10.050000
20779 4 66.809773 20.304618 10.050000
20780 4 67.656834 23.136617 10.050000
20781 4 68.059918 22.422715 10.050000
20782 4 68.906980 25.254714 10.050000
20783 4 69.310064 24.540812 10.050000
20784 4 70.157125 27.372811 10.050000
20785 4 70.560210 26.658909 10.050000
20786 4 22.610699 -57.374687 10.050000
20787 4 23.013783 -58.088589 10.050000
20788 4 23.860844 -55.256590 10.050000
20789 4 24.263929 -55.970492 10.050000
20790 4 25.110990 -53.138493 10.050000
20791 4 25.514074 -53.852395 10.050000
20792 4 26.361136 -51.020396 10.050000
20793 4 26.764220 -51.734298 10.050000
20794 4 27.611281 -48.902298 10.050000
20795 4 28.014366 -49.616200 10.050000
20796 4 28.861427 -46.784201 10.050000
20797 4 29.264511 -47.498103 10.050000
20798 4 30.111573 -44.666104 10.050000
20799 4 30.514657 -45.380006 10.050000
20800 4 31.361718 -42.548007 10.050000
20801 4 31.764803 -43.261909 10.050000
20802 4 32.611864 -40.429909 10.050000
20803 4 33.014948 -41.143812 10.050000
20804 4 33.862009 -38.311812 10.050000
20805 4 34.265094 -39.025714 10.050000
20806 4 35.112155 -36.193715 10.050000
20807 4 35.515240 -36.907617 10.050000
20808 4 36.362301 -34.075618 10.050000
20809 4 36.765385 -34.789520 10.050000
20810 4 37.612446 -31.957520 10.050000
20811 4 38.015531 -32.671423 10.050000
20812 4 38.862592 -29.839423 10.050000
20813 4 39.265676 -30.553325 10.050000
20814 4 40.112738 -27.721326 10.050000
20815 4 40.515822 -28.435228 10.050000
20816 4 41.362883 -25.603229 10.050000
20817 4 41.765968 -26.317131 10.050000
20818 4 42.613029 -23.485131 10.050000
20819 4 43.016113 -24.199034 10.050000
20820 4 43.863175 -21.367034 10.050000
20821 4 44.266259 -22.080936 10.050000
20822 4 45.113320 -19.248937 10.050000
20823 4 45.516405 -19.962839 10.050000
20824 4 46.363466 -17.130840 10.050000
20825 4 46.766550 -17.844742 10.050000
20826 4 47.613611 -15.012743 10.050000
20827 4 48.016696 -15.726645 10.050000
20828 4 48.863757 -12.894645 10.050000
20829 4 49.266841 -13.608547 10.050000
20830 4 50.113903 -10.776548 10.050000
20831 4 50.516987 -11.490450 10.050000
20832 4 51.364048 -8.658451 10.050000
20833 4 51.767133 -9.372353 10.050000
20834 4 52.614194 -6.540354 10.050000
20835 4 53.017278 -7.254256 10.050000
20836 4 53.864340 -4.422256 10.050000
20837 4 54.267424 -5.136159 10.050000
20838 4 55.114485 -2.304159 10.050000
20839 4 55.517570 -3.018061 10.050000
20840 4 56.364631 -0.186062 10.050000
20841 4 56.767715 -0.899964 10.050000
20842 4 57.614777 1.932035 10.050000
20843 4 58.017861 1.218133 10.050000
20844 4 58.864922 4.050133 10.050000
20845 4 59.268007 3.336230 10.050000
20846 4 60.115068 6.168230 10.050000
20847 4 60.518152 5.454328 10.050000
20848 4 61.365213 8.286327 10.050000
20849 4 61.768298 7.572425 10.050000
20850 4 62.615359 10.404424 10.050000
20851 4 63.018443 9.690522 10.050000
20852 4 63.865505 12.522522 10.050000
20853 4 64.268589 11.808619 10.050000
20854 4 65.115650 14.640619 10.050000
20855 4 65.518735 13.926717 10.050000
20856 4 66.365796 16.758716 10.050000
20857 4 66.768880 16.044814 10.050000
20858 4 67.615942 18.876813 10.050000
20859 4 68.019026 18.162911 10.050000
20860 4 68.866087 20.994910 10.050000
20861 4 69.269172 20.281008 10.050000
20862 4 70.116233 23.113008 10.050000
20863 4 70.519317 22.399106 10.050000
20864 4 71.366378 25.231105 10.050000
20865 4 71.769463 24.517203 10.050000
20866 4 25.070098 -57.398296 10.050000
20867 4 25.473182 -58.112199 10.050000
20868 4 26.320243 -55.280199 10.050000
20869 4 26.723328 -55.994101 10.050000
20870 4 27.570389 -53.162102 10.050000
20871 4 27.973473 -53.876004 10.050000
20872 4 28.820535 -51.044005 10.050000
20873 4 29.223619 -51.757907 10.050000
20874 4 30.070680 -48.925908 10.050000
20875 4 30.473765 -49.639810 10.050000
20876 4 31.320826 -46.807810 10.050000
20877 4 31.723910 -47.521712 10.050000
20878 4 32.570971 -44.689713 10.050000
20879 4 32.974056 -45.403615 10.050000
20880 4 33.821117 -42.571616 10.050000
20881 4 34.224201 -43.285518 10.050000
20882 4 35.071263 -40.453519 10.050000
20883 4 35.474347 -41.167421 10.050000
20884 4 36.321408 -38.335421 10.050000
20885 4 36.724493 -39.049324 10.050000
20886 4 37.571554 -36.217324 10.050000
20887 4 37.974638 -36.931226 10.050000
20888 4 38.821700 -34.099227 10.050000
20889 4 39.224784 -34.813129 10.050000
20890 4 40.071845 -31.981130 10.050000
20891 4 40.474930 -32.695032 10.050000
20892 4 41.321991 -29.863032 10.050000
20893 4 41.725075 -30.576935 10.050000
20894 4 42.572136 -27.744935 10.050000
20895 4 42.975221 -28.458837 10.050000
20896 4 43.822282 -25.626838 10.050000
20897 4 44.225367 -26.340740 10.050000
20898 4 45.072428 -23.508741 10.050000
20899 4 45.475512 -24.222643 10.050000
20900 4 46.322573 -21.390643 10.050000
20901 4 46.725658 -22.104546 10.050000
20902 4 47.572719 -19.272546 10.050000
20903 4 47.975803 -19.986448 10.050000
20904 4 48.822865 -17.154449 10.050000
20905 4 49.225949 -17.868351 10.050000
20906 4 50.073010 -15.036352 10.050000
20907 4 50.476095 -15.750254 10.050000
20908 4 51.323156 -12.918255 10.050000
20909 4 51.726240 -13.632157 10.050000
20910 4 52.573302 -10.800157 10.050000
20911 4 52.976386 -11.514059 10.050000
20912 4 53.823447 -8.682060 10.050000
20913 4 54.226532 -9.395962 10.050000
20914 4 55.073593 -6.563963 10.050000
20915 4 55.476677 -7.277865 10.050000
20916 4 56.323738 -4.445866 10.050000
20917 4 56.726823 -5.159768 10.050000
20918 4 57.573884 -2.327768 10.050000
20919 4 57.976968 -3.041671 10.050000
20920 4 58.824030 -0.209671 10.050000
20921 4 59.227114 -0.923573 10.050000
20922 4 60.074175 1.908426 10.050000
20923 4 60.477260 1.194524 10.050000
20924 4 61.324321 4.026523 10.050000
20925 4 61.727405 3.312621 10.050000
20926 4 62.574467 6.144621 10.050000
20927 4 62.977551 5.430718 10.050000
20928 4 63.824612 8.262718 10.050000
20929 4 64.227697 7.548816 10.050000
20930 4 65.074758 10.380815 10.050000
20931 4 65.477842 9.666913 10.050000
20932 4 66.324904 12.498912 10.050000
20933 4 66.727988 11.785010 10.050000
20934 4 67.575049 14.617010 10.050000
20935 4 67.978134 13.903107 10.050000
20936 4 68.825195 16.735107 10.050000
20937 4 69.228279 16.021205 10.050000
20938 4 70.075340 18.853204 10.050000
20939 4 70.478425 18.139302 10.050000
20940 4 71.325486 20.971301 10.050000
20941 4 71.728570 20.257399 10.050000
20942 4 72.575632 23.089398 10.050000
20943 4 72.978716 22.375496 10.050000
20944 4 27.529496 -57.421906 10.050000
20945 4 27.932581 -58.135808 10.050000
20946 4 28.779642 -55.303809 10.050000
20947 4 29.182726 -56.017711 10.050000
20948 4 30.029788 -53.185711 10.050000
20949 4 30.432872 -53.899613 10.050000
20950 4 31.279933 -51.067614 10.050000
20951 4 31.683018 -51.781516 10.050000
20952 4 32.530079 -48.949517 10.050000
20953 4 32.933163 -49.663419 10.050000
20954 4 33.780225 -46.831420 10.050000
20955 4 34.183309 -47.545322 10.050000
20956 4 35.030370 -44.713322 10.050000
20957 4 35.433455 -45.427224 10.050000
20958 4 36.280516 -42.595225 10.050000
20959 4 36.683600 -43.309127 10.050000
20960 4 37.530662 -40.477128 10.050000
20961 4 37.933746 -41.191030 10.050000
20962 4 38.780807 -38.359031 10.050000
20963 4 39.183892 -39.072933 10.050000
20964 4 40.030953 -36.240933 10.050000
20965 4 40.434037 -36.954836 10.050000
20966 4 41.281098 -34.122836 10.050000
20967 4 41.684183 -34.836738 10.050000
20968 4 42.531244 -32.004739 10.050000
20969 4 42.934328 -32.718641 10.050000
20970 4 43.781390 -29.886642 10.050000
20971 4 44.184474 -30.600544 10.050000
20972 4 45.031535 -27.768544 10.050000
20973 4 45.434620 -28.482447 10.050000
20974 4 46.281681 -25.650447 10.050000
20975 4 46.684765 -26.364349 10.050000
20976 4 47.531827 -23.532350 10.050000
20977 4 47.934911 -24.246252 10.050000
20978 4 48.781972 -21.414253 10.050000
20979 4 49.185057 -22.128155 10.050000
20980 4 50.032118 -19.296156 10.050000
20981 4 50.435202 -20.010058 10.050000
20982 4 51.282263 -17.178058 10.050000
20983 4 51.685348 -17.891960 10.050000
20984 4 52.532409 -15.059961 10.050000
20985 4 52.935494 -15.773863 10.050000
20986 4 53.782555 -12.941864 10.050000
20987 4 54.185639 -13.655766 10.050000
20988 4 55.032700 -10.823767 10.050000
20989 4 55.435785 -11.537669 10.050000
20990 4 56.282846 -8.705669 10.050000
20991 4 56.685930 -9.419572 10.050000
20992 4 57.532992 -6.587572 10.050000
20993 4 57.936076 -7.301474 10.050000
20994 4 58.783137 -4.469475 10.050000
20995 4 59.186222 -5.183377 10.050000
20996 4 60.033283 -2.351378 10.050000
20997 4 60.436367 -3.065280 10.050000
20998 4 61.283429 -0.233280 10.050000
20999 4 61.686513 -0.947183 10.050000
21000 4 62.533574 1.884817 10.050000
21001 4 62.936659 1.170915 10.050000
21002 4 63.783720 4.002914 10.050000
21003 4 64.186804 3.289012 10.050000
21004 4 65.033865 6.121011 10.050000
21005 4 65.436950 5.407109 10.050000
21006 4 66.284011 8.239109 10.050000
21007 4 66.687095 7.525206 10.050000
21008 4 67.534157 10.357206 10.050000
21009 4 67.937241 9.643304 10.050000
21010 4 68.784302 12.475303 10.050000
21011 4 69.187387 11.761401 10.050000
21012 4 70.034448 14.593400 10.050000
21013 4 70.437532 13.879498 10.050000
21014 4 71.284594 16.711497 10.050000
21015 4 71.687678 15.997595 10.050000
21016 4 72.534739 18.829595 10.050000
21017 4 72.937824 18.115693 10.050000
21018 4 73.784885 20.947692 10.050000
21019 4 29.988895 -57.445515 10.050000
21020 4 30.391980 -58.159417 10.050000
21021 4 31.239041 -55.327418 10.050000
21022 4 31.642125 -56.041320 10.050000
21023 4 32.489187 -53.209321 10.050000
21024 4 32.892271 -53.923223 10.050000
21025 4 33.739332 -51.091223 10.050000
21026 4 34.142417 -51.805125 10.050000
21027 4 34.989478 -48.973126 10.050000
21028 4 35.392562 -49.687028 10.050000
21029 4 36.239623 -46.855029 10.050000
21030 4 36.642708 -47.568931 10.050000
21031 4 37.489769 -44.736932 10.050000
21032 4 37.892853 -45.450834 10.050000
21033 4 38.739915 -42.618834 10.050000
21034 4 39.142999 -43.332737 10.050000
21035 4 39.990060 -40.500737 10.050000
21036 4 40.393145 -41.214639 10.050000
21037 4 41.240206 -38.382640 10.050000
21038 4 41.643290 -39.096542 10.050000
21039 4 42.490352 -36.264543 10.050000
21040 4 42.893436 -36.978445 10.050000
21041 4 43.740497 -34.146445 10.050000
21042 4 44.143582 -34.860348 10.050000
21043 4 44.990643 -32.028348 10.050000
21044 4 45.393727 -32.742250 10.050000
21045 4 46.240789 -29.910251 10.050000
21046 4 46.643873 -30.624153 10.050000
21047 4 47.490934 -27.792154 10.050000
21048 4 47.894019 -28.506056 10.050000
21049 4 48.741080 -25.674056 10.050000
21050 4 49.144164 -26.387959 10.050000
21051 4 49.991225 -23.555959 10.050000
21052 4 50.394310 -24.269861 10.050000
21053 4 51.241371 -21.437862 10.050000
21054 4 51.644455 -22.151764 10.050000
21055 4 52.491517 -19.319765 10.050000
21056 4 52.894601 -20.033667 10.050000
21057 4 53.741662 -17.201668 10.050000
21058 4 54.144747 -17.915570 10.050000
21059 4 54.991808 -15.083570 10.050000
21060 4 55.394892 -15.797472 10.050000
21061 4 56.241954 -12.965473 10.050000
21062 4 56.645038 -13.679375 10.050000
21063 4 57.492099 -10.847376 10.050000
21064 4 57.895184 -11.561278 10.050000
21065 4 58.742245 -8.729279 10.050000
21066 4 59.145329 -9.443181 10.050000
21067 4 59.992390 -6.611181 10.050000
21068 4 60.395475 -7.325084 10.050000
21069 4 61.242536 -4.493084 10.050000
21070 4 61.645621 -5.206986 10.050000
21071 4 62.492682 -2.374987 10.050000
21072 4 62.895766 -3.088889 10.050000
21073 4 63.742827 -0.256890 10.050000
21074 4 64.145912 -0.970792 10.050000
21075 4 64.992973 1.861208 10.050000
21076 4 65.396057 1.147305 10.050000
21077 4 66.243119 3.979305 10.050000
21078 4 66.646203 3.265403 10.050000
21079 4 67.493264 6.097402 10.050000
21080 4 67.896349 5.383500 10.050000
21081 4 68.743410 8.215499 10.050000
21082 4 69.146494 7.501597 10.050000
21083 4 69.993556 10.333597 10.050000
21084 4 70.396640 9.619694 10.050000
21085 4 71.243701 12.451694 10.050000
21086 4 71.646786 11.737792 10.050000
21087 4 72.493847 14.569791 10.050000
21088 4 72.896931 13.855889 10.050000
21089 4 73.743992 16.687888 10.050000
21090 4 74.147077 15.973986 10.050000
21091 4 32.448294 -57.469124 10.050000
21092 4 32.851379 -58.183026 10.050000
21093 4 33.698440 -55.351027 10.050000
21094 4 34.101524 -56.064929 10.050000
21095 4 34.948585 -53.232930 10.050000
21096 4 35.351670 -53.946832 10.050000
21097 4 36.198731 -51.114833 10.050000
21098 4 36.601815 -51.828735 10.050000
21099 4 37.448877 -48.996735 10.050000
21100 4 37.851961 -49.710637 10.050000
21101 4 38.699022 -46.878638 10.050000
21102 4 39.102107 -47.592540 10.050000
21103 4 39.949168 -44.760541 10.050000
21104 4 40.352252 -45.474443 10.050000
21105 4 41.199314 -42.642444 10.050000
21106 4 41.602398 -43.356346 10.050000
21107 4 42.449459 -40.524346 10.050000
21108 4 42.852544 -41.238249 10.050000
21109 4 43.699605 -38.406249 10.050000
21110 4 44.102689 -39.120151 10.050000
21111 4 44.949750 -36.288152 10.050000
21112 4 45.352835 -37.002054 10.050000
21113 4 46.199896 -34.170055 10.050000
21114 4 46.602980 -34.883957 10.050000
21115 4 47.450042 -32.051957 10.050000
21116 4 47.853126 -32.765860 10.050000
21117 4 48.700187 -29.933860 10.050000
21118 4 49.103272 -30.647762 10.050000
21119 4 49.950333 -27.815763 10.050000
21120 4 50.353417 -28.529665 10.050000
21121 4 51.200479 -25.697666 10.050000
21122 4 51.603563 -26.411568 10.050000
21123 4 52.450624 -23.579568 10.050000
21124 4 52.853709 -24.293471 10.050000
21125 4 53.700770 -21.461471 10.050000
21126 4 54.103854 -22.175373 10.050000
21127 4 54.950916 -19.343374 10.050000
21128 4 55.354000 -20.057276 10.050000
21129 4 56.201061 -17.225277 10.050000
21130 4 56.604146 -17.939179 10.050000
21131 4 57.451207 -15.107180 10.050000
21132 4 57.854291 -15.821082 10.050000
21133 4 58.701352 -12.989082 10.050000
21134 4 59.104437 -13.702984 10.050000
21135 4 59.951498 -10.870985 10.050000
21136 4 60.354582 -11.584887 10.050000
21137 4 61.201644 -8.752888 10.050000
21138 4 61.604728 -9.466790 10.050000
21139 4 62.451789 -6.634791 10.050000
21140 4 62.854874 -7.348693 10.050000
21141 4 63.701935 -4.516693 10.050000
21142 4 64.105019 -5.230596 10.050000
21143 4 64.952081 -2.398596 10.050000
21144 4 65.355165 -3.112498 10.050000
21145 4 66.202226 -0.280499 10.050000
21146 4 66.605311 -0.994401 10.050000
21147 4 67.452372 1.837598 10.050000
21148 4 67.855456 1.123696 10.050000
21149 4 68.702517 3.955696 10.050000
21150 4 69.105602 3.241793 10.050000
21151 4 69.952663 6.073793 10.050000
21152 4 70.355747 5.359891 10.050000
21153 4 71.202809 8.191890 10.050000
21154 4 71.605893 7.477988 10.050000
21155 4 72.452954 10.309987 10.050000
21156 4 72.856039 9.596085 10.050000
21157 4 73.703100 12.428084 10.050000
21158 4 74.106184 11.714182 10.050000
21159 4 74.953246 14.546182 10.050000
21160 4 75.356330 13.832280 10.050000
21161 5 -75.076898 -15.276379 13.400000
21162 5 -74.660183 -15.982412 13.400000
21163 5 -73.867645 -13.134673 13.400000
21164 5 -73.450930 -13.840705 13.400000
21165 5 -72.658392 -10.992966 13.400000
21166 5 -72.241677 -11.698999 13.400000
21167 5 -71.449139 -8.851260 13.400000
21168 5 -71.032424 -9.557292 13.400000
21169 5 -70.239886 -6.709553 13.400000
21170 5 -69.823170 -7.415586 13.400000
21171 5 -69.030632 -4.567847 13.400000
21172 5 -68.613917 -5.273879 13.400000
21173 5 -67.821379 -2.426140 13.400000
21174 5 -67.404664 -3.132173 13.400000
21175 5 -66.612126 -0.284434 13.400000
21176 5 -66.195411 -0.990466 13.400000
21177 5 -65.402873 1.857273 13.400000
21178 5 -64.986158 1.151240 13.400000
21179 5 -64.193620 3.998979 13.400000
21180 5 -63.776904 3.292947 13.400000
21181 5 -62.984366 6.140686 13.400000
21182 5 -62.567651 5.434653 13.400000
21183 5 -61.775113 8.282392 13.400000
21184 5 -61.358398 7.576360 13.400000
21185 5 -60.565860 10.424099 13.400000
21186 5 -60.149145 9.718066 13.400000
21187 5 -59.356607 12.565805 13.400000
21188 5 -58.939892 11.859773 13.400000
21189 5 -58.147354 14.707512 13.400000
21190 5 -57.730638 14.001479 13.400000
21191 5 -56.938100 16.849218 13.400000
21192 5 -56.521385 16.143186 13.400000
21193 5 -55.728847 18.990925 13.400000
21194 5 -55.312132 18.284892 13.400000
21195 5 -54.519594 21.132631 13.400000
21196 5 -54.102879 20.426599 13.400000
21197 5 -53.310341 23.274338 13.400000
21198 5 -52.893626 22.568305 13.400000
21199 5 -52.101088 25.416044 13.400000
21200 5 -51.684372 24.710012 13.400000
21201 5 -50.891834 27.557751 13.400000
21202 5 -50.475119 26.851718 13.400000
21203 5 -49.682581 29.699457 13.400000
21204 5 -49.265866 28.993425 13.400000
21205 5 -48.473328 31.841164 13.400000
21206 5 -48.056613 31.135131 13.400000
21207 5 -47.264075 33.982870 13.400000
21208 5 -46.847360 33.276838 13.400000
21209 5 -46.054822 36.124577 13.400000
21210 5 -45.638106 35.418544 13.400000
21211 5 -44.845568 38.266283 13.400000
21212 5 -44.428853 37.560251 13.400000
21213 5 -43.636315 40.407990 13.400000
21214 5 -43.219600 39.701957 13.400000
21215 5 -42.427062 42.549696 13.400000
21216 5 -42.010347 41.843664 13.400000
21217 5 -41.217809 44.691403 13.400000
21218 5 -40.801094 43.985370 13.400000
21219 5 -40.008556 46.833109 13.400000
21220 5 -39.591840 46.127077 13.400000
21221 5 -38.799302 48.974816 13.400000
21222 5 -38.382587 48.268783 13.400000
21223 5 -37.590049 51.116522 13.400000
21224 5 -37.173334 50.410490 13.400000
21225 5 -36.380796 53.258229 13.400000
21226 5 -35.964081 52.552196 13.400000
21227 5 -35.171543 55.399935 13.400000
21228 5 -34.754828 54.693903 13.400000
21229 5 -33.962290 57.541642 13.400000
21230 5 -33.545574 56.835609 13.400000
21231 5 -73.826753 -17.394476 13.400000
21232 5 -73.410038 -18.100509 13.400000
21233 5 -72.617500 -15.252770 13.400000
21234 5 -72.200784 -15.958802 13.400000
21235 5 -71.408246 -13.111063 13.400000
21236 5 -70.991531 -13.817096 13.400000
21237 5 -70.198993 -10.969357 13.400000
21238 5 -69.782278 -11.675389 13.400000
21239 5 -68.989740 -8.827651 13.400000
21240 5 -68.573025 -9.533683 13.400000
21241 5 -67.780487 -6.685944 13.400000
21242 5 -67.363772 -7.391976 13.400000
21243 5 -66.571234 -4.544238 13.400000
21244 5 -66.154518 -5.250270 13.400000
21245 5 -65.361980 -2.402531 13.400000
21246 5 -64.945265 -3.108563 13.400000
21247 5 -64.152727 -0.260825 13.400000
21248 5 -63.736012 -0.966857 13.400000
21249 5 -62.943474 1.880882 13.400000
21250 5 -62.526759 1.174850 13.400000
21251 5 -61.734221 4.022588 13.400000
21252 5 -61.317506 3.316556 13.400000
21253 5 -60.524968 6.164295 13.400000
21254 5 -60.108252 5.458263 13.400000
21255 5 -59.315714 8.306001 13.400000
21256 5 -58.898999 7.599969 13.400000
21257 5 -58.106461 10.447708 13.400000
21258 5 -57.689746 9.741676 13.400000
21259 5 -56.897208 12.589414 13.400000
21260 5 -56.480493 11.883382 13.400000
21261 5 -55.687955 14.731121 13.400000
21262 5 -55.271240 14.025089 13.400000
21263 5 -54.478702 16.872827 13.400000
21264 5 -54.061986 16.166795 13.400000
21265 5 -53.269448 19.014534 13.400000
21266 5 -52.852733 18.308502 13.400000
21267 5 -52.060195 21.156240 13.400000
21268 5 -51.643480 20.450208 13.400000
21269 5 -50.850942 23.297947 13.400000
21270 5 -50.434227 22.591914 13.400000
21271 5 -49.641689 25.439653 13.400000
21272 5 -49.224974 24.733621 13.400000
21273 5 -48.432436 27.581360 13.400000
21274 5 -48.015720 26.875327 13.400000
21275 5 -47.223182 29.723066 13.400000
21276 5 -46.806467 29.017034 13.400000
21277 5 -46.013929 31.864773 13.400000
21278 5 -45.597214 31.158740 13.400000
21279 5 -44.804676 34.006479 13.400000
21280 5 -44.387961 33.300447 13.400000
21281 5 -43.595423 36.148186 13.400000
21282 5 -43.178708 35.442153 13.400000
21283 5 -42.386170 38.289892 13.400000
21284 5 -41.969454 37.583860 13.400000
21285 5 -41.176916 40.431599 13.400000
21286 5 -40.760201 39.725566 13.400000
21287 5 -39.967663 42.573305 13.400000
21288 5 -39.550948 41.867273 13.400000
21289 5 -38.758410 44.715012 13.400000
21290 5 -38.341695 44.008979 13.400000
21291 5 -37.549157 46.856718 13.400000
21292 5 -37.132442 46.150686 13.400000
21293 5 -36.339904 48.998425 13.400000
21294 5 -35.923188 48.292392 13.400000
21295 5 -35.130650 51.140131 13.400000
21296 5 -34.713935 50.434099 13.400000
21297 5 -33.921397 53.281838 13.400000
21298 5 -33.504682 52.575805 13.400000
21299 5 -32.712144 55.423544 13.400000
21300 5 -32.295429 54.717512 13.400000
21301 5 -31.502891 57.565251 13.400000
21302 5 -31.086176 56.859218 13.400000
21303 5 -73.369145 -22.360313 13.400000
21304 5 -72.576607 -19.512574 13.400000
21305 5 -72.159892 -20.218606 13.400000
21306 5 -71.367354 -17.370867 13.400000
21307 5 -70.950639 -18.076900 13.400000
21308 5 -70.158101 -15.229161 13.400000
21309 5 -69.741386 -15.935193 13.400000
21310 5 -68.948848 -13.087454 13.400000
21311 5 -68.532132 -13.793487 13.400000
21312 5 -67.739594 -10.945748 13.400000
21313 5 -67.322879 -11.651780 13.400000
21314 5 -66.530341 -8.804041 13.400000
21315 5 -66.113626 -9.510074 13.400000
21316 5 -65.321088 -6.662335 13.400000
21317 5 -64.904373 -7.368367 13.400000
21318 5 -64.111835 -4.520628 13.400000
21319 5 -63.695120 -5.226661 13.400000
21320 5 -62.902582 -2.378922 13.400000
21321 5 -62.485866 -3.084954 13.400000
21322 5 -61.693328 -0.237215 13.400000
21323 5 -61.276613 -0.943248 13.400000
21324 5 -60.484075 1.904491 13.400000
21325 5 -60.067360 1.198459 13.400000
21326 5 -59.274822 4.046198 13.400000
21327 5 -58.858107 3.340165 13.400000
21328 5 -58.065569 6.187904 13.400000
21329 5 -57.648854 5.481872 13.400000
21330 5 -56.856316 8.329611 13.400000
21331 5 -56.439600 7.623578 13.400000
21332 5 -55.647062 10.471317 13.400000
21333 5 -55.230347 9.765285 13.400000
21334 5 -54.437809 12.613024 13.400000
21335 5 -54.021094 11.906991 13.400000
21336 5 -53.228556 14.754730 13.400000
21337 5 -52.811841 14.048698 13.400000
21338 5 -52.019303 16.896437 13.400000
21339 5 -51.602588 16.190404 13.400000
21340 5 -50.810050 19.038143 13.400000
21341 5 -50.393334 18.332111 13.400000
21342 5 -49.600796 21.179850 13.400000
21343 5 -49.184081 20.473817 13.400000
21344 5 -48.391543 23.321556 13.400000
21345 5 -47.974828 22.615524 13.400000
21346 5 -47.182290 25.463263 13.400000
21347 5 -46.765575 24.757230 13.400000
21348 5 -45.973037 27.604969 13.400000
21349 5 -45.556322 26.898937 13.400000
21350 5 -44.763784 29.746676 13.400000
21351 5 -44.347068 29.040643 13.400000
21352 5 -43.554530 31.888382 13.400000
21353 5 -43.137815 31.182350 13.400000
21354 5 -42.345277 34.030089 13.400000
21355 5 -41.928562 33.324056 13.400000
21356 5 -41.136024 36.171795 13.400000
21357 5 -40.719309 35.465763 13.400000
21358 5 -39.926771 38.313502 13.400000
21359 5 -39.510056 37.607469 13.400000
21360 5 -38.717518 40.455208 13.400000
21361 5 -38.300802 39.749176 13.400000
21362 5 -37.508264 42.596915 13.400000
21363 5 -37.091549 41.890882 13.400000
21364 5 -36.299011 44.738621 13.400000
21365 5 -35.882296 44.032589 13.400000
21366 5 -35.089758 46.880328 13.400000
21367 5 -34.673043 46.174295 13.400000
21368 5 -33.880505 49.022034 13.400000
21369 5 -33.463790 48.316002 13.400000
21370 5 -32.671252 51.163741 13.400000
21371 5 -32.254536 50.457708 13.400000
21372 5 -31.461998 53.305447 13.400000
21373 5 -31.045283 52.599415 13.400000
21374 5 -30.252745 55.447154 13.400000
21375 5 -29.836030 54.741121 13.400000
21376 5 -29.043492 57.588860 13.400000
21377 5 -28.626777 56.882828 13.400000
21378 5 -72.535715 -23.772377 13.400000
21379 5 -72.118999 -24.478410 13.400000
21380 5 -71.326461 -21.630671 13.400000
21381 5 -70.909746 -22.336703 13.400000
21382 5 -70.117208 -19.488964 13.400000
21383 5 -69.700493 -20.194997 13.400000
21384 5 -68.907955 -17.347258 13.400000
21385 5 -68.491240 -18.053290 13.400000
21386 5 -67.698702 -15.205551 13.400000
21387 5 -67.281987 -15.911584 13.400000
21388 5 -66.489449 -13.063845 13.400000
21389 5 -66.072733 -13.769877 13.400000
21390 5 -65.280195 -10.922138 13.400000
21391 5 -64.863480 -11.628171 13.400000
21392 5 -64.070942 -8.780432 13.400000
21393 5 -63.654227 -9.486464 13.400000
21394 5 -62.861689 -6.638725 13.400000
21395 5 -62.444974 -7.344758 13.400000
21396 5 -61.652436 -4.497019 13.400000
21397 5 -61.235721 -5.203051 13.400000
21398 5 -60.443183 -2.355313 13.400000
21399 5 -60.026468 -3.061345 13.400000
21400 5 -59.233930 -0.213606 13.400000
21401 5 -58.817214 -0.919638 13.400000
21402 5 -58.024676 1.928100 13.400000
21403 5 -57.607961 1.222068 13.400000
21404 5 -56.815423 4.069807 13.400000
21405 5 -56.398708 3.363775 13.400000
21406 5 -55.606170 6.211513 13.400000
21407 5 -55.189455 5.505481 13.400000
21408 5 -54.396917 8.353220 13.400000
21409 5 -53.980202 7.647188 13.400000
21410 5 -53.187664 10.494926 13.400000
21411 5 -52.770948 9.788894 13.400000
21412 5 -51.978410 12.636633 13.400000
21413 5 -51.561695 11.930601 13.400000
21414 5 -50.769157 14.778339 13.400000
21415 5 -50.352442 14.072307 13.400000
21416 5 -49.559904 16.920046 13.400000
21417 5 -49.143189 16.214014 13.400000
21418 5 -48.350651 19.061752 13.400000
21419 5 -47.933936 18.355720 13.400000
21420 5 -47.141398 21.203459 13.400000
21421 5 -46.724682 20.497427 13.400000
21422 5 -45.932144 23.345165 13.400000
21423 5 -45.515429 22.639133 13.400000
21424 5 -44.722891 25.486872 13.400000
21425 5 -44.306176 24.780840 13.400000
21426 5 -43.513638 27.628578 13.400000
21427 5 -43.096923 26.922546 13.400000
21428 5 -42.304385 29.770285 13.400000
21429 5 -41.887670 29.064252 13.400000
21430 5 -41.095132 31.911991 13.400000
21431 5 -40.678416 31.205959 13.400000
21432 5 -39.885878 34.053698 13.400000
21433 5 -39.469163 33.347665 13.400000
21434 5 -38.676625 36.195404 13.400000
21435 5 -38.259910 35.489372 13.400000
21436 5 -37.467372 38.337111 13.400000
21437 5 -37.050657 37.631078 13.400000
21438 5 -36.258119 40.478817 13.400000
21439 5 -35.841404 39.772785 13.400000
21440 5 -35.048866 42.620524 13.400000
21441 5 -34.632150 41.914491 13.400000
21442 5 -33.839612 44.762230 13.400000
21443 5 -33.422897 44.056198 13.400000
21444 5 -32.630359 46.903937 13.400000
21445 5 -32.213644 46.197904 13.400000
21446 5 -31.421106 49.045643 13.400000
21447 5 -31.004391 48.339611 13.400000
21448 5 -30.211853 51.187350 13.400000
21449 5 -29.795138 50.481317 13.400000
21450 5 -29.002600 53.329056 13.400000
21451 5 -28.585884 52.623024 13.400000
21452 5 -27.793346 55.470763 13.400000
21453 5 -27.376631 54.764730 13.400000
21454 5 -26.584093 57.612469 13.400000
21455 5 -26.167378 56.906437 13.400000
21456 5 -71.285569 -25.890475 13.400000
21457 5 -70.868854 -26.596507 13.400000
21458 5 -70.076316 -23.748768 13.400000
21459 5 -69.659601 -24.454801 13.400000
21460 5 -68.867063 -21.607062 13.400000
21461 5 -68.450347 -22.313094 13.400000
21462 5 -67.657809 -19.465355 13.400000
21463 5 -67.241094 -20.171388 13.400000
21464 5 -66.448556 -17.323649 13.400000
21465 5 -66.031841 -18.029681 13.400000
21466 5 -65.239303 -15.181942 13.400000
21467 5 -64.822588 -15.887975 13.400000
21468 5 -64.030050 -13.040236 13.400000
21469 5 -63.613335 -13.746268 13.400000
21470 5 -62.820797 -10.898529 13.400000
21471 5 -62.404081 -11.604562 13.400000
21472 5 -61.611543 -8.756823 13.400000
21473 5 -61.194828 -9.462855 13.400000
21474 5 -60.402290 -6.615116 13.400000
21475 5 -59.985575 -7.321149 13.400000
21476 5 -59.193037 -4.473410 13.400000
21477 5 -58.776322 -5.179442 13.400000
21478 5 -57.983784 -2.331703 13.400000
21479 5 -57.567069 -3.037736 13.400000
21480 5 -56.774531 -0.189997 13.400000
21481 5 -56.357815 -0.896029 13.400000
21482 5 -55.565277 1.951710 13.400000
21483 5 -55.148562 1.245677 13.400000
21484 5 -54.356024 4.093416 13.400000
21485 5 -53.939309 3.387384 13.400000
21486 5 -53.146771 6.235123 13.400000
21487 5 -52.730056 5.529090 13.400000
21488 5 -51.937518 8.376829 13.400000
21489 5 -51.520803 7.670797 13.400000
21490 5 -50.728265 10.518536 13.400000
21491 5 -50.311549 9.812503 13.400000
21492 5 -49.519012 12.660242 13.400000
21493 5 -49.102296 11.954210 13.400000
21494 5 -48.309758 14.801949 13.400000
21495 5 -47.893043 14.095916 13.400000
21496 5 -47.100505 16.943655 13.400000
21497 5 -46.683790 16.237623 13.400000
21498 5 -45.891252 19.085362 13.400000
21499 5 -45.474537 18.379329 13.400000
21500 5 -44.681999 21.227068 13.400000
21501 5 -44.265284 20.521036 13.400000
21502 5 -43.472746 23.368775 13.400000
21503 5 -43.056030 22.662742 13.400000
21504 5 -42.263492 25.510481 13.400000
21505 5 -41.846777 24.804449 13.400000
21506 5 -41.054239 27.652188 13.400000
21507 5 -40.637524 26.946155 13.400000
21508 5 -39.844986 29.793894 13.400000
21509 5 -39.428271 29.087862 13.400000
21510 5 -38.635733 31.935601 13.400000
21511 5 -38.219018 31.229568 13.400000
21512 5 -37.426480 34.077307 13.400000
21513 5 -37.009764 33.371275 13.400000
21514 5 -36.217226 36.219014 13.400000
21515 5 -35.800511 35.512981 13.400000
21516 5 -35.007973 38.360720 13.400000
21517 5 -34.591258 37.654688 13.400000
21518 5 -33.798720 40.502427 13.400000
21519 5 -33.382005 39.796394 13.400000
21520 5 -32.589467 42.644133 13.400000
21521 5 -32.172752 41.938101 13.400000
21522 5 -31.380214 44.785840 13.400000
21523 5 -30.963498 44.079807 13.400000
21524 5 -30.170960 46.927546 13.400000
21525 5 -29.754245 46.221514 13.400000
21526 5 -28.961707 49.069253 13.400000
21527 5 -28.544992 48.363220 13.400000
21528 5 -27.752454 51.210959 13.400000
21529 5 -27.335739 50.504927 13.400000
21530 5 -26.543201 53.352666 13.400000
21531 5 -26.126486 52.646633 13.400000
21532 5 -25.333948 55.494372 13.400000
21533 5 -24.917232 54.788340 13.400000
21534 5 -24.124694 57.636079 13.400000
21535 5 -23.707979 56.930046 13.400000
21536 5 -70.035423 -28.008572 13.400000
21537 5 -69.618708 -28.714604 13.400000
21538 5 -68.826170 -25.866865 13.400000
21539 5 -68.409455 -26.572898 13.400000
21540 5 -67.616917 -23.725159 13.400000
21541 5 -67.200202 -24.431191 13.400000
21542 5 -66.407664 -21.583452 13.400000
21543 5 -65.990949 -22.289485 13.400000
21544 5 -65.198411 -19.441746 13.400000
21545 5 -64.781695 -20.147778 13.400000
21546 5 -63.989157 -17.300039 13.400000
21547 5 -63.572442 -18.006072 13.400000
21548 5 -62.779904 -15.158333 13.400000
21549 5 -62.363189 -15.864365 13.400000
21550 5 -61.570651 -13.016626 13.400000
21551 5 -61.153936 -13.722659 13.400000
21552 5 -60.361398 -10.874920 13.400000
21553 5 -59.944683 -11.580952 13.400000
21554 5 -59.152145 -8.733213 13.400000
21555 5 -58.735429 -9.439246 13.400000
21556 5 -57.942891 -6.591507 13.400000
21557 5 -57.526176 -7.297539 13.400000
21558 5 -56.733638 -4.449800 13.400000
21559 5 -56.316923 -5.155833 13.400000
21560 5 -55.524385 -2.308094 13.400000
21561 5 -55.107670 -3.014126 13.400000
21562 5 -54.315132 -0.166387 13.400000
21563 5 -53.898417 -0.872420 13.400000
21564 5 -53.105879 1.975319 13.400000
21565 5 -52.689163 1.269287 13.400000
21566 5 -51.896625 4.117025 13.400000
21567 5 -51.479910 3.410993 13.400000
21568 5 -50.687372 6.258732 13.400000
21569 5 -50.270657 5.552700 13.400000
21570 5 -49.478119 8.400438 13.400000
21571 5 -49.061404 7.694406 13.400000
21572 5 -48.268866 10.542145 13.400000
21573 5 -47.852151 9.836113 13.400000
21574 5 -47.059613 12.683851 13.400000
21575 5 -46.642897 11.977819 13.400000
21576 5 -45.850359 14.825558 13.400000
21577 5 -45.433644 14.119526 13.400000
21578 5 -44.641106 16.967264 13.400000
21579 5 -44.224391 16.261232 13.400000
21580 5 -43.431853 19.108971 13.400000
21581 5 -43.015138 18.402939 13.400000
21582 5 -42.222600 21.250677 13.400000
21583 5 -41.805885 20.544645 13.400000
21584 5 -41.013347 23.392384 13.400000
21585 5 -40.596631 22.686352 13.400000
21586 5 -39.804093 25.534090 13.400000
21587 5 -39.387378 24.828058 13.400000
21588 5 -38.594840 27.675797 13.400000
21589 5 -38.178125 26.969765 13.400000
21590 5 -37.385587 29.817503 13.400000
21591 5 -36.968872 29.111471 13.400000
21592 5 -36.176334 31.959210 13.400000
21593 5 -35.759619 31.253178 13.400000
21594 5 -34.967081 34.100916 13.400000
21595 5 -34.550365 33.394884 13.400000
21596 5 -33.757828 36.242623 13.400000
21597 5 -33.341112 35.536590 13.400000
21598 5 -32.548574 38.384329 13.400000
21599 5 -32.131859 37.678297 13.400000
21600 5 -31.339321 40.526036 13.400000
21601 5 -30.922606 39.820003 13.400000
21602 5 -30.130068 42.667742 13.400000
21603 5 -29.713353 41.961710 13.400000
21604 5 -28.920815 44.809449 13.400000
21605 5 -28.504100 44.103416 13.400000
21606 5 -27.711562 46.951155 13.400000
21607 5 -27.294846 46.245123 13.400000
21608 5 -26.502308 49.092862 13.400000
21609 5 -26.085593 48.386829 13.400000
21610 5 -25.293055 51.234568 13.400000
21611 5 -24.876340 50.528536 13.400000
21612 5 -24.083802 53.376275 13.400000
21613 5 -23.667087 52.670242 13.400000
21614 5 -22.874549 55.517981 13.400000
21615 5 -22.457834 54.811949 13.400000
21616 5 -21.665296 57.659688 13.400000
21617 5 -21.248580 56.953655 13.400000
21618 5 -68.785278 -30.126669 13.400000
21619 5 -68.368563 -30.832702 13.400000
21620 5 -67.576025 -27.984963 13.400000
21621 5 -67.159309 -28.690995 13.400000
21622 5 -66.366771 -25.843256 13.400000
21623 5 -65.950056 -26.549289 13.400000
21624 5 -65.157518 -23.701550 13.400000
21625 5 -64.740803 -24.407582 13.400000
21626 5 -63.948265 -21.559843 13.400000
21627 5 -63.531550 -22.265876 13.400000
21628 5 -62.739012 -19.418137 13.400000
21629 5 -62.322297 -20.124169 13.400000
21630 5 -61.529759 -17.276430 13.400000
21631 5 -61.113043 -17.982463 13.400000
21632 5 -60.320505 -15.134724 13.400000
21633 5 -59.903790 -15.840756 13.400000
21634 5 -59.111252 -12.993017 13.400000
21635 5 -58.694537 -13.699050 13.400000
21636 5 -57.901999 -10.851311 13.400000
21637 5 -57.485284 -11.557343 13.400000
21638 5 -56.692746 -8.709604 13.400000
21639 5 -56.276031 -9.415637 13.400000
21640 5 -55.483493 -6.567898 13.400000
21641 5 -55.066777 -7.273930 13.400000
21642 5 -54.274239 -4.426191 13.400000
21643 5 -53.857524 -5.132224 13.400000
21644 5 -53.064986 -2.284485 13.400000
21645 5 -52.648271 -2.990517 13.400000
21646 5 -51.855733 -0.142778 13.400000
21647 5 -51.439018 -0.848811 13.400000
21648 5 -50.646480 1.998928 13.400000
21649 5 -50.229765 1.292896 13.400000
21650 5 -49.437227 4.140635 13.400000
21651 5 -49.020511 3.434602 13.400000
21652 5 -48.227973 6.282341 13.400000
21653 5 -47.811258 5.576309 13.400000
21654 5 -47.018720 8.424048 13.400000
21655 5 -46.602005 7.718015 13.400000
21656 5 -45.809467 10.565754 13.400000
21657 5 -45.392752 9.859722 13.400000
21658 5 -44.600214 12.707461 13.400000
21659 5 -44.183499 12.001428 13.400000
21660 5 -43.390961 14.849167 13.400000
21661 5 -42.974245 14.143135 13.400000
21662 5 -42.181707 16.990874 13.400000
21663 5 -41.764992 16.284841 13.400000
21664 5 -40.972454 19.132580 13.400000
21665 5 -40.555739 18.426548 13.400000
21666 5 -39.763201 21.274287 13.400000
21667 5 -39.346486 20.568254 13.400000
21668 5 -38.553948 23.415993 13.400000
21669 5 -38.137233 22.709961 13.400000
21670 5 -37.344695 25.557700 13.400000
21671 5 -36.927979 24.851667 13.400000
21672 5 -36.135441 27.699406 13.400000
21673 5 -35.718726 26.993374 13.400000
21674 5 -34.926188 29.841113 13.400000
21675 5 -34.509473 29.135080 13.400000
21676 5 -33.716935 31.982819 13.400000
21677 5 -33.300220 31.276787 13.400000
21678 5 -32.507682 34.124526 13.400000
21679 5 -32.090967 33.418493 13.400000
21680 5 -31.298429 36.266232 13.400000
21681 5 -30.881713 35.560200 13.400000
21682 5 -30.089175 38.407939 13.400000
21683 5 -29.672460 37.701906 13.400000
21684 5 -28.879922 40.549645 13.400000
21685 5 -28.463207 39.843613 13.400000
21686 5 -27.670669 42.691352 13.400000
21687 5 -27.253954 41.985319 13.400000
21688 5 -26.461416 44.833058 13.400000
21689 5 -26.044701 44.127026 13.400000
21690 5 -25.252163 46.974765 13.400000
21691 5 -24.835447 46.268732 13.400000
21692 5 -24.042910 49.116471 13.400000
21693 5 -23.626194 48.410439 13.400000
21694 5 -22.833656 51.258178 13.400000
21695 5 -22.416941 50.552145 13.400000
21696 5 -21.624403 53.399884 13.400000
21697 5 -21.207688 52.693852 13.400000
21698 5 -20.415150 55.541591 13.400000
21699 5 -19.998435 54.835558 13.400000
21700 5 -19.205897 57.683297 13.400000
21701 5 -18.789182 56.977265 13.400000
21702 5 -68.744385 -34.386473 13.400000
21703 5 -68.327670 -35.092505 13.400000
21704 5 -67.535132 -32.244766 13.400000
21705 5 -67.118417 -32.950799 13.400000
21706 5 -66.325879 -30.103060 13.400000
21707 5 -65.909164 -30.809092 13.400000
21708 5 -65.116626 -27.961353 13.400000
21709 5 -64.699911 -28.667386 13.400000
21710 5 -63.907373 -25.819647 13.400000
21711 5 -63.490657 -26.525679 13.400000
21712 5 -62.698119 -23.677940 13.400000
21713 5 -62.281404 -24.383973 13.400000
21714 5 -61.488866 -21.536234 13.400000
21715 5 -61.072151 -22.242266 13.400000
21716 5 -60.279613 -19.394527 13.400000
21717 5 -59.862898 -20.100560 13.400000
21718 5 -59.070360 -17.252821 13.400000
21719 5 -58.653645 -17.958853 13.400000
21720 5 -57.861107 -15.111114 13.400000
21721 5 -57.444391 -15.817147 13.400000
21722 5 -56.651853 -12.969408 13.400000
21723 5 -56.235138 -13.675440 13.400000
21724 5 -55.442600 -10.827701 13.400000
21725 5 -55.025885 -11.533734 13.400000
21726 5 -54.233347 -8.685995 13.400000
21727 5 -53.816632 -9.392027 13.400000
21728 5 -53.024094 -6.544288 13.400000
21729 5 -52.607379 -7.250321 13.400000
21730 5 -51.814841 -4.402582 13.400000
21731 5 -51.398125 -5.108614 13.400000
21732 5 -50.605587 -2.260875 13.400000
21733 5 -50.188872 -2.966908 13.400000
21734 5 -49.396334 -0.119169 13.400000
21735 5 -48.979619 -0.825201 13.400000
21736 5 -48.187081 2.022538 13.400000
21737 5 -47.770366 1.316505 13.400000
21738 5 -46.977828 4.164244 13.400000
21739 5 -46.561113 3.458212 13.400000
21740 5 -45.768575 6.305951 13.400000
21741 5 -45.351859 5.599918 13.400000
21742 5 -44.559321 8.447657 13.400000
21743 5 -44.142606 7.741625 13.400000
21744 5 -43.350068 10.589363 13.400000
21745 5 -42.933353 9.883331 13.400000
21746 5 -42.140815 12.731070 13.400000
21747 5 -41.724100 12.025038 13.400000
21748 5 -40.931562 14.872776 13.400000
21749 5 -40.514847 14.166744 13.400000
21750 5 -39.722309 17.014483 13.400000
21751 5 -39.305593 16.308451 13.400000
21752 5 -38.513055 19.156189 13.400000
21753 5 -38.096340 18.450157 13.400000
21754 5 -37.303802 21.297896 13.400000
21755 5 -36.887087 20.591864 13.400000
21756 5 -36.094549 23.439602 13.400000
21757 5 -35.677834 22.733570 13.400000
21758 5 -34.885296 25.581309 13.400000
21759 5 -34.468581 24.875277 13.400000
21760 5 -33.676043 27.723015 13.400000
21761 5 -33.259327 27.016983 13.400000
21762 5 -32.466789 29.864722 13.400000
21763 5 -32.050074 29.158690 13.400000
21764 5 -31.257536 32.006428 13.400000
21765 5 -30.840821 31.300396 13.400000
21766 5 -30.048283 34.148135 13.400000
21767 5 -29.631568 33.442103 13.400000
21768 5 -28.839030 36.289841 13.400000
21769 5 -28.422315 35.583809 13.400000
21770 5 -27.629777 38.431548 13.400000
21771 5 -27.213061 37.725516 13.400000
21772 5 -26.420523 40.573254 13.400000
21773 5 -26.003808 39.867222 13.400000
21774 5 -25.211270 42.714961 13.400000
21775 5 -24.794555 42.008928 13.400000
21776 5 -24.002017 44.856667 13.400000
21777 5 -23.585302 44.150635 13.400000
21778 5 -22.792764 46.998374 13.400000
21779 5 -22.376049 46.292341 13.400000
21780 5 -21.583511 49.140080 13.400000
21781 5 -21.166795 48.434048 13.400000
21782 5 -20.374257 51.281787 13.400000
21783 5 -19.957542 50.575754 13.400000
21784 5 -19.165004 53.423493 13.400000
21785 5 -18.748289 52.717461 13.400000
21786 5 -17.955751 55.565200 13.400000
21787 5 -17.539036 54.859167 13.400000
21788 5 -16.746498 57.706906 13.400000
21789 5 -16.329783 57.000874 13.400000
21790 5 -67.494240 -36.504570 13.400000
21791 5 -67.077524 -37.210603 13.400000
21792 5 -66.284987 -34.362864 13.400000
21793 5 -65.868271 -35.068896 13.400000
21794 5 -65.075733 -32.221157 13.400000
21795 5 -64.659018 -32.927190 13.400000
21796 5 -63.866480 -30.079451 13.400000
21797 5 -63.449765 -30.785483 13.400000
21798 5 -62.657227 -27.937744 13.400000
21799 5 -62.240512 -28.643777 13.400000
21800 5 -61.447974 -25.796038 13.400000
21801 5 -61.031259 -26.502070 13.400000
21802 5 -60.238721 -23.654331 13.400000
21803 5 -59.822005 -24.360364 13.400000
21804 5 -59.029467 -21.512625 13.400000
21805 5 -58.612752 -22.218657 13.400000
21806 5 -57.820214 -19.370918 13.400000
21807 5 -57.403499 -20.076951 13.400000
21808 5 -56.610961 -17.229212 13.400000
21809 5 -56.194246 -17.935244 13.400000
21810 5 -55.401708 -15.087505 13.400000
21811 5 -54.984993 -15.793538 13.400000
21812 5 -54.192455 -12.945799 13.400000
21813 5 -53.775739 -13.651831 13.400000
21814 5 -52.983201 -10.804092 13.400000
21815 5 -52.566486 -11.510125 13.400000
21816 5 -51.773948 -8.662386 13.400000
21817 5 -51.357233 -9.368418 13.400000
21818 5 -50.564695 -6.520679 13.400000
21819 5 -50.147980 -7.226712 13.400000
21820 5 -49.355442 -4.378973 13.400000
21821 5 -48.938727 -5.085005 13.400000
21822 5 -48.146189 -2.237266 13.400000
21823 5 -47.729473 -2.943299 13.400000
21824 5 -46.936935 -0.095560 13.400000
21825 5 -46.520220 -0.801592 13.400000
21826 5 -45.727682 2.046147 13.400000
21827 5 -45.310967 1.340114 13.400000
21828 5 -44.518429 4.187853 13.400000
21829 5 -44.101714 3.481821 13.400000
21830 5 -43.309176 6.329560 13.400000
21831 5 -42.892461 5.623527 13.400000
21832 5 -42.099923 8.471266 13.400000
21833 5 -41.683207 7.765234 13.400000
21834 5 -40.890669 10.612973 13.400000
21835 5 -40.473954 9.906940 13.400000
21836 5 -39.681416 12.754679 13.400000
21837 5 -39.264701 12.048647 13.400000
21838 5 -38.472163 14.896386 13.400000
21839 5 -38.055448 14.190353 13.400000
21840 5 -37.262910 17.038092 13.400000
21841 5 -36.846195 16.332060 13.400000
21842 5 -36.053657 19.179799 13.400000
21843 5 -35.636941 18.473766 13.400000
21844 5 -34.844403 21.321505 13.400000
21845 5 -34.427688 20.615473 13.400000
21846 5 -33.635150 23.463212 13.400000
21847 5 -33.218435 22.757179 13.400000
21848 5 -32.425897 25.604918 13.400000
21849 5 -32.009182 24.898886 13.400000
21850 5 -31.216644 27.746625 13.400000
21851 5 -30.799929 27.040592 13.400000
21852 5 -30.007391 29.888331 13.400000
21853 5 -29.590675 29.182299 13.400000
21854 5 -28.798137 32.030038 13.400000
21855 5 -28.381422 31.324005 13.400000
21856 5 -27.588884 34.171744 13.400000
21857 5 -27.172169 33.465712 13.400000
21858 5 -26.379631 36.313451 13.400000
21859 5 -25.962916 35.607418 13.400000
21860 5 -25.170378 38.455157 13.400000
21861 5 -24.753663 37.749125 13.400000
21862 5 -23.961125 40.596864 13.400000
21863 5 -23.544409 39.890831 13.400000
21864 5 -22.751871 42.738570 13.400000
21865 5 -22.335156 42.032538 13.400000
21866 5 -21.542618 44.880277 13.400000
21867 5 -21.125903 44.174244 13.400000
21868 5 -20.333365 47.021983 13.400000
21869 5 -19.916650 46.315951 13.400000
21870 5 -19.124112 49.163690 13.400000
21871 5 -18.707397 48.457657 13.400000
21872 5 -17.914859 51.305396 13.400000
21873 5 -17.498143 50.599364 13.400000
21874 5 -16.705605 53.447103 13.400000
21875 5 -16.288890 52.741070 13.400000
21876 5 -15.496352 55.588809 13.400000
21877 5 -15.079637 54.882777 13.400000
21878 5 -14.287099 57.730516 13.400000
21879 5 -13.870384 57.024483 13.400000
21880 5 -66.244094 -38.622667 13.400000
21881 5 -65.827379 -39.328700 13.400000
21882 5 -65.034841 -36.480961 13.400000
21883 5 -64.618126 -37.186993 13.400000
21884 5 -63.825588 -34.339254 13.400000
21885 5 -63.408872 -35.045287 13.400000
21886 5 -62.616334 -32.197548 13.400000
21887 5 -62.199619 -32.903580 13.400000
21888 5 -61.407081 -30.055841 13.400000
21889 5 -60.990366 -30.761874 13.400000
21890 5 -60.197828 -27.914135 13.400000
21891 5 -59.781113 -28.620167 13.400000
21892 5 -58.988575 -25.772428 13.400000
21893 5 -58.571860 -26.478461 13.400000
21894 5 -57.779322 -23.630722 13.400000
21895 5 -57.362606 -24.336754 13.400000
21896 5 -56.570069 -21.489015 13.400000
21897 5 -56.153353 -22.195048 13.400000
21898 5 -55.360815 -19.347309 13.400000
21899 5 -54.944100 -20.053341 13.400000
21900 5 -54.151562 -17.205602 13.400000
21901 5 -53.734847 -17.911635 13.400000
21902 5 -52.942309 -15.063896 13.400000
21903 5 -52.525594 -15.769928 13.400000
21904 5 -51.733056 -12.922189 13.400000
21905 5 -51.316341 -13.628222 13.400000
21906 5 -50.523803 -10.780483 13.400000
21907 5 -50.107087 -11.486515 13.400000
21908 5 -49.314549 -8.638776 13.400000
21909 5 -48.897834 -9.344809 13.400000
21910 5 -48.105296 -6.497070 13.400000
21911 5 -47.688581 -7.203102 13.400000
21912 5 -46.896043 -4.355363 13.400000
21913 5 -46.479328 -5.061396 13.400000
21914 5 -45.686790 -2.213657 13.400000
21915 5 -45.270075 -2.919689 13.400000
21916 5 -44.477537 -0.071950 13.400000
21917 5 -44.060821 -0.777983 13.400000
21918 5 -43.268283 2.069756 13.400000
21919 5 -42.851568 1.363724 13.400000
21920 5 -42.059030 4.211463 13.400000
21921 5 -41.642315 3.505430 13.400000
21922 5 -40.849777 6.353169 13.400000
21923 5 -40.433062 5.647137 13.400000
21924 5 -39.640524 8.494876 13.400000
21925 5 -39.223809 7.788843 13.400000
21926 5 -38.431271 10.636582 13.400000
21927 5 -38.014555 9.930550 13.400000
21928 5 -37.222017 12.778289 13.400000
21929 5 -36.805302 12.072256 13.400000
21930 5 -36.012764 14.919995 13.400000
21931 5 -35.596049 14.213963 13.400000
21932 5 -34.803511 17.061701 13.400000
21933 5 -34.386796 16.355669 13.400000
21934 5 -33.594258 19.203408 13.400000
21935 5 -33.177543 18.497376 13.400000
21936 5 -32.385005 21.345114 13.400000
21937 5 -31.968289 20.639082 13.400000
21938 5 -31.175751 23.486821 13.400000
21939 5 -30.759036 22.780789 13.400000
21940 5 -29.966498 25.628527 13.400000
21941 5 -29.549783 24.922495 13.400000
21942 5 -28.757245 27.770234 13.400000
21943 5 -28.340530 27.064202 13.400000
21944 5 -27.547992 29.911940 13.400000
21945 5 -27.131277 29.205908 13.400000
21946 5 -26.338739 32.053647 13.400000
21947 5 -25.922023 31.347615 13.400000
21948 5 -25.129485 34.195353 13.400000
21949 5 -24.712770 33.489321 13.400000
21950 5 -23.920232 36.337060 13.400000
21951 5 -23.503517 35.631028 13.400000
21952 5 -22.710979 38.478766 13.400000
21953 5 -22.294264 37.772734 13.400000
21954 5 -21.501726 40.620473 13.400000
21955 5 -21.085011 39.914441 13.400000
21956 5 -20.292473 42.762179 13.400000
21957 5 -19.875757 42.056147 13.400000
21958 5 -19.083219 44.903886 13.400000
21959 5 -18.666504 44.197854 13.400000
21960 5 -17.873966 47.045592 13.400000
21961 5 -17.457251 46.339560 13.400000
21962 5 -16.664713 49.187299 13.400000
21963 5 -16.247998 48.481266 13.400000
21964 5 -15.455460 51.329005 13.400000
21965 5 -15.038745 50.622973 13.400000
21966 5 -14.246207 53.470712 13.400000
21967 5 -13.829491 52.764679 13.400000
21968 5 -13.036953 55.612418 13.400000
21969 5 -12.620238 54.906386 13.400000
21970 5 -11.827700 57.754125 13.400000
21971 5 -11.410985 57.048092 13.400000
21972 5 -64.993948 -40.740765 13.400000
21973 5 -64.577233 -41.446797 13.400000
21974 5 -63.784695 -38.599058 13.400000
21975 5 -63.367980 -39.305091 13.400000
21976 5 -62.575442 -36.457352 13.400000
21977 5 -62.158727 -37.163384 13.400000
21978 5 -61.366189 -34.315645 13.400000
21979 5 -60.949474 -35.021678 13.400000
21980 5 -60.156936 -32.173939 13.400000
21981 5 -59.740220 -32.879971 13.400000
21982 5 -58.947682 -30.032232 13.400000
21983 5 -58.530967 -30.738265 13.400000
21984 5 -57.738429 -27.890526 13.400000
21985 5 -57.321714 -28.596558 13.400000
21986 5 -56.529176 -25.748819 13.400000
21987 5 -56.112461 -26.454852 13.400000
21988 5 -55.319923 -23.607113 13.400000
21989 5 -54.903208 -24.313145 13.400000
21990 5 -54.110670 -21.465406 13.400000
21991 5 -53.693954 -22.171439 13.400000
21992 5 -52.901416 -19.323700 13.400000
21993 5 -52.484701 -20.029732 13.400000
21994 5 -51.692163 -17.181993 13.400000
21995 5 -51.275448 -17.888026 13.400000
21996 5 -50.482910 -15.040287 13.400000
21997 5 -50.066195 -15.746319 13.400000
21998 5 -49.273657 -12.898580 13.400000
21999 5 -48.856942 -13.604613 13.400000
22000 5 -48.064404 -10.756874 13.400000
22001 5 -47.647688 -11.462906 13.400000
22002 5 -46.855150 -8.615167 13.400000
22003 5 -46.438435 -9.321200 13.400000
22004 5 -45.645897 -6.473461 13.400000
22005 5 -45.229182 -7.179493 13.400000
22006 5 -44.436644 -4.331754 13.400000
22007 5 -44.019929 -5.037787 13.400000
22008 5 -43.227391 -2.190048 13.400000
22009 5 -42.810676 -2.896080 13.400000
22010 5 -42.018138 -0.048341 13.400000
22011 5 -41.601422 -0.754374 13.400000
22012 5 -40.808885 2.093365 13.400000
22013 5 -40.392169 1.387333 13.400000
22014 5 -39.599631 4.235072 13.400000
22015 5 -39.182916 3.529039 13.400000
22016 5 -38.390378 6.376778 13.400000
22017 5 -37.973663 5.670746 13.400000
22018 5 -37.181125 8.518485 13.400000
22019 5 -36.764410 7.812452 13.400000
22020 5 -35.971872 10.660191 13.400000
22021 5 -35.555157 9.954159 13.400000
22022 5 -34.762619 12.801898 13.400000
22023 5 -34.345903 12.095865 13.400000
22024 5 -33.553365 14.943604 13.400000
22025 5 -33.136650 14.237572 13.400000
22026 5 -32.344112 17.085311 13.400000
22027 5 -31.927397 16.379278 13.400000
22028 5 -31.134859 19.227017 13.400000
22029 5 -30.718144 18.520985 13.400000
22030 5 -29.925606 21.368724 13.400000
22031 5 -29.508891 20.662691 13.400000
22032 5 -28.716353 23.510430 13.400000
22033 5 -28.299637 22.804398 13.400000
22034 5 -27.507099 25.652137 13.400000
22035 5 -27.090384 24.946104 13.400000
22036 5 -26.297846 27.793843 13.400000
22037 5 -25.881131 27.087811 13.400000
22038 5 -25.088593 29.935550 13.400000
22039 5 -24.671878 29.229517 13.400000
22040 5 -23.879340 32.077256 13.400000
22041 5 -23.462625 31.371224 13.400000
22042 5 -22.670087 34.218963 13.400000
22043 5 -22.253371 33.512930 13.400000
22044 5 -21.460833 36.360669 13.400000
22045 5 -21.044118 35.654637 13.400000
22046 5 -20.251580 38.502376 13.400000
22047 5 -19.834865 37.796343 13.400000
22048 5 -19.042327 40.644082 13.400000
22049 5 -18.625612 39.938050 13.400000
22050 5 -17.833074 42.785789 13.400000
22051 5 -17.416359 42.079756 13.400000
22052 5 -16.623821 44.927495 13.400000
22053 5 -16.207105 44.221463 13.400000
22054 5 -15.414567 47.069202 13.400000
22055 5 -14.997852 46.363169 13.400000
22056 5 -14.205314 49.210908 13.400000
22057 5 -13.788599 48.504876 13.400000
22058 5 -12.996061 51.352615 13.400000
22059 5 -12.579346 50.646582 13.400000
22060 5 -11.786808 53.494321 13.400000
22061 5 -11.370093 52.788289 13.400000
22062 5 -10.577555 55.636028 13.400000
22063 5 -10.160839 54.929995 13.400000
22064 5 -9.368301 57.777734 13.400000
22065 5 -8.951586 57.071702 13.400000
22066 5 -63.743803 -42.858862 13.400000
22067 5 -63.327088 -43.564894 13.400000
22068 5 -62.534550 -40.717155 13.400000
22069 5 -62.117834 -41.423188 13.400000
22070 5 -61.325296 -38.575449 13.400000
22071 5 -60.908581 -39.281481 13.400000
22072 5 -60.116043 -36.433742 13.400000
22073 5 -59.699328 -37.139775 13.400000
22074 5 -58.906790 -34.292036 13.400000
22075 5 -58.490075 -34.998068 13.400000
22076 5 -57.697537 -32.150329 13.400000
22077 5 -57.280822 -32.856362 13.400000
22078 5 -56.488284 -30.008623 13.400000
22079 5 -56.071568 -30.714655 13.400000
22080 5 -55.279030 -27.866916 13.400000
22081 5 -54.862315 -28.572949 13.400000
22082 5 -54.069777 -25.725210 13.400000
22083 5 -53.653062 -26.431242 13.400000
22084 5 -52.860524 -23.583503 13.400000
22085 5 -52.443809 -24.289536 13.400000
22086 5 -51.651271 -21.441797 13.400000
22087 5 -51.234556 -22.147829 13.400000
22088 5 -50.442018 -19.300090 13.400000
22089 5 -50.025302 -20.006123 13.400000
22090 5 -49.232764 -17.158384 13.400000
22091 5 -48.816049 -17.864416 13.400000
22092 5 -48.023511 -15.016677 13.400000
22093 5 -47.606796 -15.722710 13.400000
22094 5 -46.814258 -12.874971 13.400000
22095 5 -46.397543 -13.581003 13.400000
22096 5 -45.605005 -10.733264 13.400000
22097 5 -45.188290 -11.439297 13.400000
22098 5 -44.395752 -8.591558 13.400000
22099 5 -43.979036 -9.297590 13.400000
22100 5 -43.186498 -6.449851 13.400000
22101 5 -42.769783 -7.155884 13.400000
22102 5 -41.977245 -4.308145 13.400000
22103 5 -41.560530 -5.014177 13.400000
22104 5 -40.767992 -2.166438 13.400000
22105 5 -40.351277 -2.872471 13.400000
22106 5 -39.558739 -0.024732 13.400000
22107 5 -39.142024 -0.730764 13.400000
22108 5 -38.349486 2.116975 13.400000
22109 5 -37.932770 1.410942 13.400000
22110 5 -37.140232 4.258681 13.400000
22111 5 -36.723517 3.552649 13.400000
22112 5 -35.930979 6.400388 13.400000
22113 5 -35.514264 5.694355 13.400000
22114 5 -34.721726 8.542094 13.400000
22115 5 -34.305011 7.836062 13.400000
22116 5 -33.512473 10.683801 13.400000
22117 5 -33.095758 9.977768 13.400000
22118 5 -32.303220 12.825507 13.400000
22119 5 -31.886504 12.119475 13.400000
22120 5 -31.093967 14.967214 13.400000
22121 5 -30.677251 14.261181 13.400000
22122 5 -29.884713 17.108920 13.400000
22123 5 -29.467998 16.402888 13.400000
22124 5 -28.675460 19.250627 13.400000
22125 5 -28.258745 18.544594 13.400000
22126 5 -27.466207 21.392333 13.400000
22127 5 -27.049492 20.686301 13.400000
22128 5 -26.256954 23.534039 13.400000
22129 5 -25.840239 22.828007 13.400000
22130 5 -25.047701 25.675746 13.400000
22131 5 -24.630985 24.969714 13.400000
22132 5 -23.838447 27.817452 13.400000
22133 5 -23.421732 27.111420 13.400000
22134 5 -22.629194 29.959159 13.400000
22135 5 -22.212479 29.253127 13.400000
22136 5 -21.419941 32.100865 13.400000
22137 5 -21.003226 31.394833 13.400000
22138 5 -20.210688 34.242572 13.400000
22139 5 -19.793973 33.536540 13.400000
22140 5 -19.001435 36.384278 13.400000
22141 5 -18.584719 35.678246 13.400000
22142 5 -17.792181 38.525985 13.400000
22143 5 -17.375466 37.819953 13.400000
22144 5 -16.582928 40.667691 13.400000
22145 5 -16.166213 39.961659 13.400000
22146 5 -15.373675 42.809398 13.400000
22147 5 -14.956960 42.103366 13.400000
22148 5 -14.164422 44.951104 13.400000
22149 5 -13.747707 44.245072 13.400000
22150 5 -12.955169 47.092811 13.400000
22151 5 -12.538453 46.386779 13.400000
22152 5 -11.745915 49.234517 13.400000
22153 5 -11.329200 48.528485 13.400000
22154 5 -10.536662 51.376224 13.400000
22155 5 -10.119947 50.670192 13.400000
22156 5 -9.327409 53.517930 13.400000
22157 5 -8.910694 52.811898 13.400000
22158 5 -8.118156 55.659637 13.400000
22159 5 -7.701441 54.953604 13.400000
22160 5 -6.908903 57.801343 13.400000
22161 5 -6.492187 57.095311 13.400000
22162 5 -61.284404 -42.835253 13.400000
22163 5 -60.867689 -43.541285 13.400000
22164 5 -60.075151 -40.693546 13.400000
22165 5 -59.658436 -41.399578 13.400000
22166 5 -58.865898 -38.551840 13.400000
22167 5 -58.449182 -39.257872 13.400000
22168 5 -57.656644 -36.410133 13.400000
22169 5 -57.239929 -37.116165 13.400000
22170 5 -56.447391 -34.268427 13.400000
22171 5 -56.030676 -34.974459 13.400000
22172 5 -55.238138 -32.126720 13.400000
22173 5 -54.821423 -32.832753 13.400000
22174 5 -54.028885 -29.985014 13.400000
22175 5 -53.612170 -30.691046 13.400000
22176 5 -52.819632 -27.843307 13.400000
22177 5 -52.402916 -28.549340 13.400000
22178 5 -51.610378 -25.701601 13.400000
22179 5 -51.193663 -26.407633 13.400000
22180 5 -50.401125 -23.559894 13.400000
22181 5 -49.984410 -24.265927 13.400000
22182 5 -49.191872 -21.418188 13.400000
22183 5 -48.775157 -22.124220 13.400000
22184 5 -47.982619 -19.276481 13.400000
22185 5 -47.565904 -19.982514 13.400000
22186 5 -46.773366 -17.134775 13.400000
22187 5 -46.356650 -17.840807 13.400000
22188 5 -45.564112 -14.993068 13.400000
22189 5 -45.147397 -15.699101 13.400000
22190 5 -44.354859 -12.851362 13.400000
22191 5 -43.938144 -13.557394 13.400000
22192 5 -43.145606 -10.709655 13.400000
22193 5 -42.728891 -11.415688 13.400000
22194 5 -41.936353 -8.567949 13.400000
22195 5 -41.519638 -9.273981 13.400000
22196 5 -40.727100 -6.426242 13.400000
22197 5 -40.310384 -7.132275 13.400000
22198 5 -39.517846 -4.284536 13.400000
22199 5 -39.101131 -4.990568 13.400000
22200 5 -38.308593 -2.142829 13.400000
22201 5 -37.891878 -2.848862 13.400000
22202 5 -37.099340 -0.001123 13.400000
22203 5 -36.682625 -0.707155 13.400000
22204 5 -35.890087 2.140584 13.400000
22205 5 -35.473372 1.434551 13.400000
22206 5 -34.680834 4.282290 13.400000
22207 5 -34.264118 3.576258 13.400000
22208 5 -33.471580 6.423997 13.400000
22209 5 -33.054865 5.717964 13.400000
22210 5 -32.262327 8.565703 13.400000
22211 5 -31.845612 7.859671 13.400000
22212 5 -31.053074 10.707410 13.400000
22213 5 -30.636359 10.001377 13.400000
22214 5 -29.843821 12.849116 13.400000
22215 5 -29.427106 12.143084 13.400000
22216 5 -28.634568 14.990823 13.400000
22217 5 -28.217852 14.284790 13.400000
22218 5 -27.425314 17.132529 13.400000
22219 5 -27.008599 16.426497 13.400000
22220 5 -26.216061 19.274236 13.400000
22221 5 -25.799346 18.568203 13.400000
22222 5 -25.006808 21.415942 13.400000
22223 5 -24.590093 20.709910 13.400000
22224 5 -23.797555 23.557649 13.400000
22225 5 -23.380840 22.851616 13.400000
22226 5 -22.588302 25.699355 13.400000
22227 5 -22.171586 24.993323 13.400000
22228 5 -21.379048 27.841062 13.400000
22229 5 -20.962333 27.135029 13.400000
22230 5 -20.169795 29.982768 13.400000
22231 5 -19.753080 29.276736 13.400000
22232 5 -18.960542 32.124475 13.400000
22233 5 -18.543827 31.418442 13.400000
22234 5 -17.751289 34.266181 13.400000
22235 5 -17.334574 33.560149 13.400000
22236 5 -16.542036 36.407888 13.400000
22237 5 -16.125320 35.701855 13.400000
22238 5 -15.332783 38.549594 13.400000
22239 5 -14.916067 37.843562 13.400000
22240 5 -14.123529 40.691301 13.400000
22241 5 -13.706814 39.985268 13.400000
22242 5 -12.914276 42.833007 13.400000
22243 5 -12.497561 42.126975 13.400000
22244 5 -11.705023 44.974714 13.400000
22245 5 -11.288308 44.268681 13.400000
22246 5 -10.495770 47.116420 13.400000
22247 5 -10.079055 46.410388 13.400000
22248 5 -9.286517 49.258127 13.400000
22249 5 -8.869801 48.552094 13.400000
22250 5 -8.077263 51.399833 13.400000
22251 5 -7.660548 50.693801 13.400000
22252 5 -6.868010 53.541540 13.400000
22253 5 -6.451295 52.835507 13.400000
22254 5 -5.658757 55.683246 13.400000
22255 5 -5.242042 54.977214 13.400000
22256 5 -4.449504 57.824953 13.400000
22257 5 -4.032789 57.118920 13.400000
22258 5 -60.034258 -44.953350 13.400000
22259 5 -59.617543 -45.659382 13.400000
22260 5 -58.825005 -42.811643 13.400000
22261 5 -58.408290 -43.517676 13.400000
22262 5 -57.615752 -40.669937 13.400000
22263 5 -57.199037 -41.375969 13.400000
22264 5 -56.406499 -38.528230 13.400000
22265 5 -55.989784 -39.234263 13.400000
22266 5 -55.197246 -36.386524 13.400000
22267 5 -54.780530 -37.092556 13.400000
22268 5 -53.987992 -34.244817 13.400000
22269 5 -53.571277 -34.950850 13.400000
22270 5 -52.778739 -32.103111 13.400000
22271 5 -52.362024 -32.809143 13.400000
22272 5 -51.569486 -29.961404 13.400000
22273 5 -51.152771 -30.667437 13.400000
22274 5 -50.360233 -27.819698 13.400000
22275 5 -49.943518 -28.525730 13.400000
22276 5 -49.150980 -25.677991 13.400000
22277 5 -48.734264 -26.384024 13.400000
22278 5 -47.941726 -23.536285 13.400000
22279 5 -47.525011 -24.242317 13.400000
22280 5 -46.732473 -21.394578 13.400000
22281 5 -46.315758 -22.100611 13.400000
22282 5 -45.523220 -19.252872 13.400000
22283 5 -45.106505 -19.958904 13.400000
22284 5 -44.313967 -17.111165 13.400000
22285 5 -43.897252 -17.817198 13.400000
22286 5 -43.104714 -14.969459 13.400000
22287 5 -42.687998 -15.675491 13.400000
22288 5 -41.895460 -12.827752 13.400000
22289 5 -41.478745 -13.533785 13.400000
22290 5 -40.686207 -10.686046 13.400000
22291 5 -40.269492 -11.392078 13.400000
22292 5 -39.476954 -8.544339 13.400000
22293 5 -39.060239 -9.250372 13.400000
22294 5 -38.267701 -6.402633 13.400000
22295 5 -37.850986 -7.108665 13.400000
22296 5 -37.058448 -4.260926 13.400000
22297 5 -36.641732 -4.966959 13.400000
22298 5 -35.849194 -2.119220 13.400000
22299 5 -35.432479 -2.825252 13.400000
22300 5 -34.639941 0.022487 13.400000
22301 5 -34.223226 -0.683546 13.400000
22302 5 -33.430688 2.164193 13.400000
22303 5 -33.013973 1.458161 13.400000
22304 5 -32.221435 4.305900 13.400000
22305 5 -31.804720 3.599867 13.400000
22306 5 -31.012182 6.447606 13.400000
22307 5 -30.595466 5.741574 13.400000
22308 5 -29.802928 8.589313 13.400000
22309 5 -29.386213 7.883280 13.400000
22310 5 -28.593675 10.731019 13.400000
22311 5 -28.176960 10.024987 13.400000
22312 5 -27.384422 12.872726 13.400000
22313 5 -26.967707 12.166693 13.400000
22314 5 -26.175169 15.014432 13.400000
22315 5 -25.758454 14.308400 13.400000
22316 5 -24.965916 17.156139 13.400000
22317 5 -24.549200 16.450106 13.400000
22318 5 -23.756662 19.297845 13.400000
22319 5 -23.339947 18.591813 13.400000
22320 5 -22.547409 21.439552 13.400000
22321 5 -22.130694 20.733519 13.400000
22322 5 -21.338156 23.581258 13.400000
22323 5 -20.921441 22.875226 13.400000
22324 5 -20.128903 25.722965 13.400000
22325 5 -19.712188 25.016932 13.400000
22326 5 -18.919650 27.864671 13.400000
22327 5 -18.502934 27.158639 13.400000
22328 5 -17.710396 30.006377 13.400000
22329 5 -17.293681 29.300345 13.400000
22330 5 -16.501143 32.148084 13.400000
22331 5 -16.084428 31.442052 13.400000
22332 5 -15.291890 34.289790 13.400000
22333 5 -14.875175 33.583758 13.400000
22334 5 -14.082637 36.431497 13.400000
22335 5 -13.665922 35.725465 13.400000
22336 5 -12.873384 38.573203 13.400000
22337 5 -12.456668 37.867171 13.400000
22338 5 -11.664130 40.714910 13.400000
22339 5 -11.247415 40.008878 13.400000
22340 5 -10.454877 42.856616 13.400000
22341 5 -10.038162 42.150584 13.400000
22342 5 -9.245624 44.998323 13.400000
22343 5 -8.828909 44.292291 13.400000
22344 5 -8.036371 47.140029 13.400000
22345 5 -7.619656 46.433997 13.400000
22346 5 -6.827118 49.281736 13.400000
22347 5 -6.410402 48.575704 13.400000
22348 5 -5.617865 51.423442 13.400000
22349 5 -5.201149 50.717410 13.400000
22350 5 -4.408611 53.565149 13.400000
22351 5 -3.991896 52.859117 13.400000
22352 5 -3.199358 55.706855 13.400000
22353 5 -2.782643 55.000823 13.400000
22354 5 -1.990105 57.848562 13.400000
22355 5 -1.573390 57.142530 13.400000
22356 5 -58.784113 -47.071447 13.400000
22357 5 -58.367398 -47.777479 13.400000
22358 5 -57.574860 -44.929741 13.400000
22359 5 -57.158144 -45.635773 13.400000
22360 5 -56.365606 -42.788034 13.400000
22361 5 -55.948891 -43.494066 13.400000
22362 5 -55.156353 -40.646328 13.400000
22363 5 -54.739638 -41.352360 13.400000
22364 5 -53.947100 -38.504621 13.400000
22365 5 -53.530385 -39.210653 13.400000
22366 5 -52.737847 -36.362915 13.400000
22367 5 -52.321132 -37.068947 13.400000
22368 5 -51.528594 -34.221208 13.400000
22369 5 -51.111878 -34.927240 13.400000
22370 5 -50.319340 -32.079502 13.400000
22371 5 -49.902625 -32.785534 13.400000
22372 5 -49.110087 -29.937795 13.400000
22373 5 -48.693372 -30.643827 13.400000
22374 5 -47.900834 -27.796089 13.400000
22375 5 -47.484119 -28.502121 13.400000
22376 5 -46.691581 -25.654382 13.400000
22377 5 -46.274866 -26.360415 13.400000
22378 5 -45.482328 -23.512676 13.400000
22379 5 -45.065612 -24.218708 13.400000
22380 5 -44.273074 -21.370969 13.400000
22381 5 -43.856359 -22.077002 13.400000
22382 5 -43.063821 -19.229263 13.400000
22383 5 -42.647106 -19.935295 13.400000
22384 5 -41.854568 -17.087556 13.400000
22385 5 -41.437853 -17.793589 13.400000
22386 5 -40.645315 -14.945850 13.400000
22387 5 -40.228600 -15.651882 13.400000
22388 5 -39.436062 -12.804143 13.400000
22389 5 -39.019346 -13.510176 13.400000
22390 5 -38.226808 -10.662437 13.400000
22391 5 -37.810093 -11.368469 13.400000
22392 5 -37.017555 -8.520730 13.400000
22393 5 -36.600840 -9.226763 13.400000
22394 5 -35.808302 -6.379024 13.400000
22395 5 -35.391587 -7.085056 13.400000
22396 5 -34.599049 -4.237317 13.400000
22397 5 -34.182334 -4.943350 13.400000
22398 5 -33.389796 -2.095611 13.400000
22399 5 -32.973080 -2.801643 13.400000
22400 5 -32.180542 0.046096 13.400000
22401 5 -31.763827 -0.659937 13.400000
22402 5 -30.971289 2.187802 13.400000
22403 5 -30.554574 1.481770 13.400000
22404 5 -29.762036 4.329509 13.400000
22405 5 -29.345321 3.623476 13.400000
22406 5 -28.552783 6.471215 13.400000
22407 5 -28.136068 5.765183 13.400000
22408 5 -27.343530 8.612922 13.400000
22409 5 -26.926814 7.906889 13.400000
22410 5 -26.134276 10.754628 13.400000
22411 5 -25.717561 10.048596 13.400000
22412 5 -24.925023 12.896335 13.400000
22413 5 -24.508308 12.190302 13.400000
22414 5 -23.715770 15.038041 13.400000
22415 5 -23.299055 14.332009 13.400000
22416 5 -22.506517 17.179748 13.400000
22417 5 -22.089802 16.473715 13.400000
22418 5 -21.297264 19.321454 13.400000
22419 5 -20.880548 18.615422 13.400000
22420 5 -20.088010 21.463161 13.400000
22421 5 -19.671295 20.757128 13.400000
22422 5 -18.878757 23.604867 13.400000
22423 5 -18.462042 22.898835 13.400000
22424 5 -17.669504 25.746574 13.400000
22425 5 -17.252789 25.040541 13.400000
22426 5 -16.460251 27.888280 13.400000
22427 5 -16.043536 27.182248 13.400000
22428 5 -15.250998 30.029987 13.400000
22429 5 -14.834282 29.323954 13.400000
22430 5 -14.041744 32.171693 13.400000
22431 5 -13.625029 31.465661 13.400000
22432 5 -12.832491 34.313400 13.400000
22433 5 -12.415776 33.607367 13.400000
22434 5 -11.623238 36.455106 13.400000
22435 5 -11.206523 35.749074 13.400000
22436 5 -10.413985 38.596813 13.400000
22437 5 -9.997270 37.890780 13.400000
22438 5 -9.204732 40.738519 13.400000
22439 5 -8.788016 40.032487 13.400000
22440 5 -7.995478 42.880226 13.400000
22441 5 -7.578763 42.174193 13.400000
22442 5 -6.786225 45.021932 13.400000
22443 5 -6.369510 44.315900 13.400000
22444 5 -5.576972 47.163639 13.400000
22445 5 -5.160257 46.457606 13.400000
22446 5 -4.367719 49.305345 13.400000
22447 5 -3.951004 48.599313 13.400000
22448 5 -3.158466 51.447052 13.400000
22449 5 -2.741750 50.741019 13.400000
22450 5 -1.949212 53.588758 13.400000
22451 5 -1.532497 52.882726 13.400000
22452 5 -0.739959 55.730465 13.400000
22453 5 -0.323244 55.024432 13.400000
22454 5 0.469294 57.872171 13.400000
22455 5 0.886009 57.166139 13.400000
22456 5 -57.533967 -49.189544 13.400000
22457 5 -57.117252 -49.895577 13.400000
22458 5 -56.324714 -47.047838 13.400000
22459 5 -55.907999 -47.753870 13.400000
22460 5 -55.115461 -44.906131 13.400000
22461 5 -54.698745 -45.612164 13.400000
22462 5 -53.906207 -42.764425 13.400000
22463 5 -53.489492 -43.470457 13.400000
22464 5 -52.696954 -40.622718 13.400000
22465 5 -52.280239 -41.328751 13.400000
22466 5 -51.487701 -38.481012 13.400000
22467 5 -51.070986 -39.187044 13.400000
22468 5 -50.278448 -36.339305 13.400000
22469 5 -49.861733 -37.045338 13.400000
22470 5 -49.069195 -34.197599 13.400000
22471 5 -48.652479 -34.903631 13.400000
22472 5 -47.859942 -32.055892 13.400000
22473 5 -47.443226 -32.761925 13.400000
22474 5 -46.650688 -29.914186 13.400000
22475 5 -46.233973 -30.620218 13.400000
22476 5 -45.441435 -27.772479 13.400000
22477 5 -45.024720 -28.478512 13.400000
22478 5 -44.232182 -25.630773 13.400000
22479 5 -43.815467 -26.336805 13.400000
22480 5 -43.022929 -23.489066 13.400000
22481 5 -42.606214 -24.195099 13.400000
22482 5 -41.813676 -21.347360 13.400000
22483 5 -41.396960 -22.053392 13.400000
22484 5 -40.604422 -19.205653 13.400000
22485 5 -40.187707 -19.911686 13.400000
22486 5 -39.395169 -17.063947 13.400000
22487 5 -38.978454 -17.769979 13.400000
22488 5 -38.185916 -14.922240 13.400000
22489 5 -37.769201 -15.628273 13.400000
22490 5 -36.976663 -12.780534 13.400000
22491 5 -36.559948 -13.486566 13.400000
22492 5 -35.767410 -10.638827 13.400000
22493 5 -35.350694 -11.344860 13.400000
22494 5 -34.558156 -8.497121 13.400000
22495 5 -34.141441 -9.203153 13.400000
22496 5 -33.348903 -6.355414 13.400000
22497 5 -32.932188 -7.061447 13.400000
22498 5 -32.139650 -4.213708 13.400000
22499 5 -31.722935 -4.919740 13.400000
22500 5 -30.930397 -2.072001 13.400000
22501 5 -30.513682 -2.778034 13.400000
22502 5 -29.721144 0.069705 13.400000
22503 5 -29.304428 -0.636327 13.400000
22504 5 -28.511890 2.211412 13.400000
22505 5 -28.095175 1.505379 13.400000
22506 5 -27.302637 4.353118 13.400000
22507 5 -26.885922 3.647086 13.400000
22508 5 -26.093384 6.494825 13.400000
22509 5 -25.676669 5.788792 13.400000
22510 5 -24.884131 8.636531 13.400000
22511 5 -24.467416 7.930499 13.400000
22512 5 -23.674878 10.778238 13.400000
22513 5 -23.258162 10.072205 13.400000
22514 5 -22.465624 12.919944 13.400000
22515 5 -22.048909 12.213912 13.400000
22516 5 -21.256371 15.061651 13.400000
22517 5 -20.839656 14.355618 13.400000
22518 5 -20.047118 17.203357 13.400000
22519 5 -19.630403 16.497325 13.400000
22520 5 -18.837865 19.345064 13.400000
22521 5 -18.421150 18.639031 13.400000
22522 5 -17.628612 21.486770 13.400000
22523 5 -17.211896 20.780738 13.400000
22524 5 -16.419358 23.628477 13.400000
22525 5 -16.002643 22.922444 13.400000
22526 5 -15.210105 25.770183 13.400000
22527 5 -14.793390 25.064151 13.400000
22528 5 -14.000852 27.911890 13.400000
22529 5 -13.584137 27.205857 13.400000
22530 5 -12.791599 30.053596 13.400000
22531 5 -12.374884 29.347564 13.400000
22532 5 -11.582346 32.195303 13.400000
22533 5 -11.165630 31.489270 13.400000
22534 5 -10.373092 34.337009 13.400000
22535 5 -9.956377 33.630977 13.400000
22536 5 -9.163839 36.478715 13.400000
22537 5 -8.747124 35.772683 13.400000
22538 5 -7.954586 38.620422 13.400000
22539 5 -7.537871 37.914390 13.400000
22540 5 -6.745333 40.762128 13.400000
22541 5 -6.328618 40.056096 13.400000
22542 5 -5.536080 42.903835 13.400000
22543 5 -5.119364 42.197803 13.400000
22544 5 -4.326826 45.045541 13.400000
22545 5 -3.910111 44.339509 13.400000
22546 5 -3.117573 47.187248 13.400000
22547 5 -2.700858 46.481216 13.400000
22548 5 -1.908320 49.328954 13.400000
22549 5 -1.491605 48.622922 13.400000
22550 5 -0.699067 51.470661 13.400000
22551 5 -0.282352 50.764629 13.400000
22552 5 0.510186 53.612367 13.400000
22553 5 0.926902 52.906335 13.400000
22554 5 1.719440 55.754074 13.400000
22555 5 2.136155 55.048042 13.400000
22556 5 2.928693 57.895780 13.400000
22557 5 3.345408 57.189748 13.400000
22558 5 -56.283821 -51.307642 13.400000
22559 5 -55.867106 -52.013674 13.400000
22560 5 -55.074568 -49.165935 13.400000
22561 5 -54.657853 -49.871967 13.400000
22562 5 -53.865315 -47.024229 13.400000
22563 5 -53.448600 -47.730261 13.400000
22564 5 -52.656062 -44.882522 13.400000
22565 5 -52.239347 -45.588554 13.400000
22566 5 -51.446809 -42.740816 13.400000
22567 5 -51.030093 -43.446848 13.400000
22568 5 -50.237555 -40.599109 13.400000
22569 5 -49.820840 -41.305141 13.400000
22570 5 -49.028302 -38.457403 13.400000
22571 5 -48.611587 -39.163435 13.400000
22572 5 -47.819049 -36.315696 13.400000
22573 5 -47.402334 -37.021728 13.400000
22574 5 -46.609796 -34.173990 13.400000
22575 5 -46.193081 -34.880022 13.400000
22576 5 -45.400543 -32.032283 13.400000
22577 5 -44.983827 -32.738315 13.400000
22578 5 -44.191289 -29.890577 13.400000
22579 5 -43.774574 -30.596609 13.400000
22580 5 -42.982036 -27.748870 13.400000
22581 5 -42.565321 -28.454902 13.400000
22582 5 -41.772783 -25.607164 13.400000
22583 5 -41.356068 -26.313196 13.400000
22584 5 -40.563530 -23.465457 13.400000
22585 5 -40.146815 -24.171489 13.400000
22586 5 -39.354277 -21.323751 13.400000
22587 5 -38.937561 -22.029783 13.400000
22588 5 -38.145024 -19.182044 13.400000
22589 5 -37.728308 -19.888077 13.400000
22590 5 -36.935770 -17.040338 13.400000
22591 5 -36.519055 -17.746370 13.400000
22592 5 -35.726517 -14.898631 13.400000
22593 5 -35.309802 -15.604664 13.400000
22594 5 -34.517264 -12.756925 13.400000
22595 5 -34.100549 -13.462957 13.400000
22596 5 -33.308011 -10.615218 13.400000
22597 5 -32.891296 -11.321251 13.400000
22598 5 -32.098758 -8.473512 13.400000
22599 5 -31.682042 -9.179544 13.400000
22600 5 -30.889504 -6.331805 13.400000
22601 5 -30.472789 -7.037838 13.400000
22602 5 -29.680251 -4.190099 13.400000
22603 5 -29.263536 -4.896131 13.400000
22604 5 -28.470998 -2.048392 13.400000
22605 5 -28.054283 -2.754425 13.400000
22606 5 -27.261745 0.093314 13.400000
22607 5 -26.845030 -0.612718 13.400000
22608 5 -26.052492 2.235021 13.400000
22609 5 -25.635776 1.528988 13.400000
22610 5 -24.843238 4.376727 13.400000
22611 5 -24.426523 3.670695 13.400000
22612 5 -23.633985 6.518434 13.400000
22613 5 -23.217270 5.812401 13.400000
22614 5 -22.424732 8.660140 13.400000
22615 5 -22.008017 7.954108 13.400000
22616 5 -21.215479 10.801847 13.400000
22617 5 -20.798764 10.095814 13.400000
22618 5 -20.006226 12.943553 13.400000
22619 5 -19.589510 12.237521 13.400000
22620 5 -18.796972 15.085260 13.400000
22621 5 -18.380257 14.379227 13.400000
22622 5 -17.587719 17.226966 13.400000
22623 5 -17.171004 16.520934 13.400000
22624 5 -16.378466 19.368673 13.400000
22625 5 -15.961751 18.662640 13.400000
22626 5 -15.169213 21.510379 13.400000
22627 5 -14.752498 20.804347 13.400000
22628 5 -13.959960 23.652086 13.400000
22629 5 -13.543244 22.946053 13.400000
22630 5 -12.750706 25.793792 13.400000
22631 5 -12.333991 25.087760 13.400000
22632 5 -11.541453 27.935499 13.400000
22633 5 -11.124738 27.229466 13.400000
22634 5 -10.332200 30.077205 13.400000
22635 5 -9.915485 29.371173 13.400000
22636 5 -9.122947 32.218912 13.400000
22637 5 -8.706232 31.512879 13.400000
22638 5 -7.913694 34.360618 13.400000
22639 5 -7.496978 33.654586 13.400000
22640 5 -6.704440 36.502325 13.400000
22641 5 -6.287725 35.796292 13.400000
22642 5 -5.495187 38.644031 13.400000
22643 5 -5.078472 37.937999 13.400000
22644 5 -4.285934 40.785738 13.400000
22645 5 -3.869219 40.079705 13.400000
22646 5 -3.076681 42.927444 13.400000
22647 5 -2.659966 42.221412 13.400000
22648 5 -1.867428 45.069151 13.400000
22649 5 -1.450712 44.363118 13.400000
22650 5 -0.658174 47.210857 13.400000
22651 5 -0.241459 46.504825 13.400000
22652 5 0.551079 49.352564 13.400000
22653 5 0.967794 48.646531 13.400000
22654 5 1.760332 51.494270 13.400000
22655 5 2.177047 50.788238 13.400000
22656 5 2.969585 53.635977 13.400000
22657 5 3.386300 52.929944 13.400000
22658 5 4.178838 55.777683 13.400000
22659 5 4.595554 55.071651 13.400000
22660 5 5.388092 57.919390 13.400000
22661 5 5.804807 57.213357 13.400000
22662 5 -55.033676 -53.425739 13.400000
22663 5 -53.824423 -51.284032 13.400000
22664 5 -53.407707 -51.990065 13.400000
22665 5 -52.615169 -49.142326 13.400000
22666 5 -52.198454 -49.848358 13.400000
22667 5 -51.405916 -47.000619 13.400000
22668 5 -50.989201 -47.706652 13.400000
22669 5 -50.196663 -44.858913 13.400000
22670 5 -49.779948 -45.564945 13.400000
22671 5 -48.987410 -42.717206 13.400000
22672 5 -48.570695 -43.423239 13.400000
22673 5 -47.778157 -40.575500 13.400000
22674 5 -47.361441 -41.281532 13.400000
22675 5 -46.568903 -38.433793 13.400000
22676 5 -46.152188 -39.139826 13.400000
22677 5 -45.359650 -36.292087 13.400000
22678 5 -44.942935 -36.998119 13.400000
22679 5 -44.150397 -34.150380 13.400000
22680 5 -43.733682 -34.856413 13.400000
22681 5 -42.941144 -32.008674 13.400000
22682 5 -42.524429 -32.714706 13.400000
22683 5 -41.731891 -29.866967 13.400000
22684 5 -41.315175 -30.573000 13.400000
22685 5 -40.522637 -27.725261 13.400000
22686 5 -40.105922 -28.431293 13.400000
22687 5 -39.313384 -25.583554 13.400000
22688 5 -38.896669 -26.289587 13.400000
22689 5 -38.104131 -23.441848 13.400000
22690 5 -37.687416 -24.147880 13.400000
22691 5 -36.894878 -21.300141 13.400000
22692 5 -36.478163 -22.006174 13.400000
22693 5 -35.685625 -19.158435 13.400000
22694 5 -35.268909 -19.864467 13.400000
22695 5 -34.476371 -17.016728 13.400000
22696 5 -34.059656 -17.722761 13.400000
22697 5 -33.267118 -14.875022 13.400000
22698 5 -32.850403 -15.581054 13.400000
22699 5 -32.057865 -12.733315 13.400000
22700 5 -31.641150 -13.439348 13.400000
22701 5 -30.848612 -10.591609 13.400000
22702 5 -30.431897 -11.297641 13.400000
22703 5 -29.639359 -8.449902 13.400000
22704 5 -29.222643 -9.155935 13.400000
22705 5 -28.430105 -6.308196 13.400000
22706 5 -28.013390 -7.014228 13.400000
22707 5 -27.220852 -4.166489 13.400000
22708 5 -26.804137 -4.872522 13.400000
22709 5 -26.011599 -2.024783 13.400000
22710 5 -25.594884 -2.730815 13.400000
22711 5 -24.802346 0.116924 13.400000
22712 5 -24.385631 -0.589109 13.400000
22713 5 -23.593093 2.258630 13.400000
22714 5 -23.176377 1.552598 13.400000
22715 5 -22.383840 4.400337 13.400000
22716 5 -21.967124 3.694304 13.400000
22717 5 -21.174586 6.542043 13.400000
22718 5 -20.757871 5.836011 13.400000
22719 5 -19.965333 8.683750 13.400000
22720 5 -19.548618 7.977717 13.400000
22721 5 -18.756080 10.825456 13.400000
22722 5 -18.339365 10.119424 13.400000
22723 5 -17.546827 12.967163 13.400000
22724 5 -17.130112 12.261130 13.400000
22725 5 -16.337574 15.108869 13.400000
22726 5 -15.920858 14.402837 13.400000
22727 5 -15.128320 17.250576 13.400000
22728 5 -14.711605 16.544543 13.400000
22729 5 -13.919067 19.392282 13.400000
22730 5 -13.502352 18.686250 13.400000
22731 5 -12.709814 21.533989 13.400000
22732 5 -12.293099 20.827956 13.400000
22733 5 -11.500561 23.675695 13.400000
22734 5 -11.083846 22.969663 13.400000
22735 5 -10.291308 25.817402 13.400000
22736 5 -9.874592 25.111369 13.400000
22737 5 -9.082054 27.959108 13.400000
22738 5 -8.665339 27.253076 13.400000
22739 5 -7.872801 30.100815 13.400000
22740 5 -7.456086 29.394782 13.400000
22741 5 -6.663548 32.242521 13.400000
22742 5 -6.246833 31.536489 13.400000
22743 5 -5.454295 34.384228 13.400000
22744 5 -5.037580 33.678195 13.400000
22745 5 -4.245042 36.525934 13.400000
22746 5 -3.828326 35.819902 13.400000
22747 5 -3.035788 38.667641 13.400000
22748 5 -2.619073 37.961608 13.400000
22749 5 -1.826535 40.809347 13.400000
22750 5 -1.409820 40.103315 13.400000
22751 5 -0.617282 42.951053 13.400000
22752 5 -0.200567 42.245021 13.400000
22753 5 0.591971 45.092760 13.400000
22754 5 1.008686 44.386728 13.400000
22755 5 1.801224 47.234466 13.400000
22756 5 2.217940 46.528434 13.400000
22757 5 3.010478 49.376173 13.400000
22758 5 3.427193 48.670141 13.400000
22759 5 4.219731 51.517879 13.400000
22760 5 4.636446 50.811847 13.400000
22761 5 5.428984 53.659586 13.400000
22762 5 5.845699 52.953554 13.400000
22763 5 6.638237 55.801292 13.400000
22764 5 7.054952 55.095260 13.400000
22765 5 7.847490 57.942999 13.400000
22766 5 8.264206 57.236967 13.400000
22767 5 -52.574277 -53.402129 13.400000
22768 5 -52.157562 -54.108162 13.400000
22769 5 -51.365024 -51.260423 13.400000
22770 5 -50.948309 -51.966455 13.400000
22771 5 -50.155771 -49.118716 13.400000
22772 5 -49.739055 -49.824749 13.400000
22773 5 -48.946517 -46.977010 13.400000
22774 5 -48.529802 -47.683042 13.400000
22775 5 -47.737264 -44.835304 13.400000
22776 5 -47.320549 -45.541336 13.400000
22777 5 -46.528011 -42.693597 13.400000
22778 5 -46.111296 -43.399629 13.400000
22779 5 -45.318758 -40.551891 13.400000
22780 5 -44.902043 -41.257923 13.400000
22781 5 -44.109505 -38.410184 13.400000
22782 5 -43.692789 -39.116216 13.400000
22783 5 -42.900251 -36.268478 13.400000
22784 5 -42.483536 -36.974510 13.400000
22785 5 -41.690998 -34.126771 13.400000
22786 5 -41.274283 -34.832803 13.400000
22787 5 -40.481745 -31.985065 13.400000
22788 5 -40.065030 -32.691097 13.400000
22789 5 -39.272492 -29.843358 13.400000
22790 5 -38.855777 -30.549390 13.400000
22791 5 -38.063239 -27.701652 13.400000
22792 5 -37.646523 -28.407684 13.400000
22793 5 -36.853985 -25.559945 13.400000
22794 5 -36.437270 -26.265977 13.400000
22795 5 -35.644732 -23.418239 13.400000
22796 5 -35.228017 -24.124271 13.400000
22797 5 -34.435479 -21.276532 13.400000
22798 5 -34.018764 -21.982564 13.400000
22799 5 -33.226226 -19.134826 13.400000
22800 5 -32.809511 -19.840858 13.400000
22801 5 -32.016973 -16.993119 13.400000
22802 5 -31.600257 -17.699151 13.400000
22803 5 -30.807719 -14.851413 13.400000
22804 5 -30.391004 -15.557445 13.400000
22805 5 -29.598466 -12.709706 13.400000
22806 5 -29.181751 -13.415739 13.400000
22807 5 -28.389213 -10.568000 13.400000
22808 5 -27.972498 -11.274032 13.400000
22809 5 -27.179960 -8.426293 13.400000
22810 5 -26.763245 -9.132326 13.400000
22811 5 -25.970707 -6.284587 13.400000
22812 5 -25.553991 -6.990619 13.400000
22813 5 -24.761453 -4.142880 13.400000
22814 5 -24.344738 -4.848913 13.400000
22815 5 -23.552200 -2.001174 13.400000
22816 5 -23.135485 -2.707206 13.400000
22817 5 -22.342947 0.140533 13.400000
22818 5 -21.926232 -0.565500 13.400000
22819 5 -21.133694 2.282239 13.400000
22820 5 -20.716979 1.576207 13.400000
22821 5 -19.924441 4.423946 13.400000
22822 5 -19.507725 3.717913 13.400000
22823 5 -18.715187 6.565652 13.400000
22824 5 -18.298472 5.859620 13.400000
22825 5 -17.505934 8.707359 13.400000
22826 5 -17.089219 8.001326 13.400000
22827 5 -16.296681 10.849065 13.400000
22828 5 -15.879966 10.143033 13.400000
22829 5 -15.087428 12.990772 13.400000
22830 5 -14.670713 12.284739 13.400000
22831 5 -13.878175 15.132478 13.400000
22832 5 -13.461459 14.426446 13.400000
22833 5 -12.668921 17.274185 13.400000
22834 5 -12.252206 16.568152 13.400000
22835 5 -11.459668 19.415891 13.400000
22836 5 -11.042953 18.709859 13.400000
22837 5 -10.250415 21.557598 13.400000
22838 5 -9.833700 20.851565 13.400000
22839 5 -9.041162 23.699304 13.400000
22840 5 -8.624447 22.993272 13.400000
22841 5 -7.831909 25.841011 13.400000
22842 5 -7.415194 25.134978 13.400000
22843 5 -6.622656 27.982717 13.400000
22844 5 -6.205940 27.276685 13.400000
22845 5 -5.413402 30.124424 13.400000
22846 5 -4.996687 29.418391 13.400000
22847 5 -4.204149 32.266130 13.400000
22848 5 -3.787434 31.560098 13.400000
22849 5 -2.994896 34.407837 13.400000
22850 5 -2.578181 33.701804 13.400000
22851 5 -1.785643 36.549543 13.400000
22852 5 -1.368928 35.843511 13.400000
22853 5 -0.576390 38.691250 13.400000
22854 5 -0.159674 37.985217 13.400000
22855 5 0.632864 40.832956 13.400000
22856 5 1.049579 40.126924 13.400000
22857 5 1.842117 42.974663 13.400000
22858 5 2.258832 42.268630 13.400000
22859 5 3.051370 45.116369 13.400000
22860 5 3.468085 44.410337 13.400000
22861 5 4.260623 47.258076 13.400000
22862 5 4.677338 46.552043 13.400000
22863 5 5.469876 49.399782 13.400000
22864 5 5.886592 48.693750 13.400000
22865 5 6.679130 51.541489 13.400000
22866 5 7.095845 50.835456 13.400000
22867 5 7.888383 53.683195 13.400000
22868 5 8.305098 52.977163 13.400000
22869 5 9.097636 55.824902 13.400000
22870 5 9.514351 55.118869 13.400000
22871 5 10.306889 57.966608 13.400000
22872 5 10.723604 57.260576 13.400000
22873 5 -51.324131 -55.520227 13.400000
22874 5 -50.907416 -56.226259 13.400000
22875 5 -50.114878 -53.378520 13.400000
22876 5 -49.698163 -54.084553 13.400000
22877 5 -48.905625 -51.236814 13.400000
22878 5 -48.488910 -51.942846 13.400000
22879 5 -47.696372 -49.095107 13.400000
22880 5 -47.279657 -49.801140 13.400000
22881 5 -46.487119 -46.953401 13.400000
22882 5 -46.070403 -47.659433 13.400000
22883 5 -45.277865 -44.811694 13.400000
22884 5 -44.861150 -45.517727 13.400000
22885 5 -44.068612 -42.669988 13.400000
22886 5 -43.651897 -43.376020 13.400000
22887 5 -42.859359 -40.528281 13.400000
22888 5 -42.442644 -41.234314 13.400000
22889 5 -41.650106 -38.386575 13.400000
22890 5 -41.233391 -39.092607 13.400000
22891 5 -40.440853 -36.244868 13.400000
22892 5 -40.024137 -36.950901 13.400000
22893 5 -39.231599 -34.103162 13.400000
22894 5 -38.814884 -34.809194 13.400000
22895 5 -38.022346 -31.961455 13.400000
22896 5 -37.605631 -32.667488 13.400000
22897 5 -36.813093 -29.819749 13.400000
22898 5 -36.396378 -30.525781 13.400000
22899 5 -35.603840 -27.678042 13.400000
22900 5 -35.187125 -28.384075 13.400000
22901 5 -34.394587 -25.536336 13.400000
22902 5 -33.977871 -26.242368 13.400000
22903 5 -33.185333 -23.394629 13.400000
22904 5 -32.768618 -24.100662 13.400000
22905 5 -31.976080 -21.252923 13.400000
22906 5 -31.559365 -21.958955 13.400000
22907 5 -30.766827 -19.111216 13.400000
22908 5 -30.350112 -19.817249 13.400000
22909 5 -29.557574 -16.969510 13.400000
22910 5 -29.140859 -17.675542 13.400000
22911 5 -28.348321 -14.827803 13.400000
22912 5 -27.931605 -15.533836 13.400000
22913 5 -27.139067 -12.686097 13.400000
22914 5 -26.722352 -13.392129 13.400000
22915 5 -25.929814 -10.544390 13.400000
22916 5 -25.513099 -11.250423 13.400000
22917 5 -24.720561 -8.402684 13.400000
22918 5 -24.303846 -9.108716 13.400000
22919 5 -23.511308 -6.260977 13.400000
22920 5 -23.094593 -6.967010 13.400000
22921 5 -22.302055 -4.119271 13.400000
22922 5 -21.885339 -4.825303 13.400000
22923 5 -21.092801 -1.977564 13.400000
22924 5 -20.676086 -2.683597 13.400000
22925 5 -19.883548 0.164142 13.400000
22926 5 -19.466833 -0.541890 13.400000
22927 5 -18.674295 2.305849 13.400000
22928 5 -18.257580 1.599816 13.400000
22929 5 -17.465042 4.447555 13.400000
22930 5 -17.048327 3.741523 13.400000
22931 5 -16.255789 6.589262 13.400000
22932 5 -15.839073 5.883229 13.400000
22933 5 -15.046535 8.730968 13.400000
22934 5 -14.629820 8.024936 13.400000
22935 5 -13.837282 10.872675 13.400000
22936 5 -13.420567 10.166642 13.400000
22937 5 -12.628029 13.014381 13.400000
22938 5 -12.211314 12.308349 13.400000
22939 5 -11.418776 15.156088 13.400000
22940 5 -11.002061 14.450055 13.400000
22941 5 -10.209523 17.297794 13.400000
22942 5 -9.792807 16.591762 13.400000
22943 5 -9.000269 19.439501 13.400000
22944 5 -8.583554 18.733468 13.400000
22945 5 -7.791016 21.581207 13.400000
22946 5 -7.374301 20.875175 13.400000
22947 5 -6.581763 23.722914 13.400000
22948 5 -6.165048 23.016881 13.400000
22949 5 -5.372510 25.864620 13.400000
22950 5 -4.955795 25.158588 13.400000
22951 5 -4.163257 28.006327 13.400000
22952 5 -3.746541 27.300294 13.400000
22953 5 -2.954003 30.148033 13.400000
22954 5 -2.537288 29.442001 13.400000
22955 5 -1.744750 32.289740 13.400000
22956 5 -1.328035 31.583707 13.400000
22957 5 -0.535497 34.431446 13.400000
22958 5 -0.118782 33.725414 13.400000
22959 5 0.673756 36.573153 13.400000
22960 5 1.090471 35.867120 13.400000
22961 5 1.883009 38.714859 13.400000
22962 5 2.299725 38.008827 13.400000
22963 5 3.092262 40.856566 13.400000
22964 5 3.508978 40.150533 13.400000
22965 5 4.301516 42.998272 13.400000
22966 5 4.718231 42.292240 13.400000
22967 5 5.510769 45.139979 13.400000
22968 5 5.927484 44.433946 13.400000
22969 5 6.720022 47.281685 13.400000
22970 5 7.136737 46.575653 13.400000
22971 5 7.929275 49.423391 13.400000
22972 5 8.345990 48.717359 13.400000
22973 5 9.138528 51.565098 13.400000
22974 5 9.555244 50.859066 13.400000
22975 5 10.347782 53.706804 13.400000
22976 5 10.764497 53.000772 13.400000
22977 5 11.557035 55.848511 13.400000
22978 5 11.973750 55.142479 13.400000
22979 5 12.766288 57.990217 13.400000
22980 5 13.183003 57.284185 13.400000
22981 5 -50.073986 -57.638324 13.400000
22982 5 -49.657271 -58.344356 13.400000
22983 5 -48.864733 -55.496617 13.400000
22984 5 -48.448017 -56.202650 13.400000
22985 5 -47.655479 -53.354911 13.400000
22986 5 -47.238764 -54.060943 13.400000
22987 5 -46.446226 -51.213204 13.400000
22988 5 -46.029511 -51.919237 13.400000
22989 5 -45.236973 -49.071498 13.400000
22990 5 -44.820258 -49.777530 13.400000
22991 5 -44.027720 -46.929791 13.400000
22992 5 -43.611005 -47.635824 13.400000
22993 5 -42.818467 -44.788085 13.400000
22994 5 -42.401751 -45.494117 13.400000
22995 5 -41.609213 -42.646378 13.400000
22996 5 -41.192498 -43.352411 13.400000
22997 5 -40.399960 -40.504672 13.400000
22998 5 -39.983245 -41.210704 13.400000
22999 5 -39.190707 -38.362966 13.400000
23000 5 -38.773992 -39.068998 13.400000
23001 5 -37.981454 -36.221259 13.400000
23002 5 -37.564739 -36.927291 13.400000
23003 5 -36.772201 -34.079553 13.400000
23004 5 -36.355485 -34.785585 13.400000
23005 5 -35.562947 -31.937846 13.400000
23006 5 -35.146232 -32.643878 13.400000
23007 5 -34.353694 -29.796140 13.400000
23008 5 -33.936979 -30.502172 13.400000
23009 5 -33.144441 -27.654433 13.400000
23010 5 -32.727726 -28.360465 13.400000
23011 5 -31.935188 -25.512727 13.400000
23012 5 -31.518473 -26.218759 13.400000
23013 5 -30.725935 -23.371020 13.400000
23014 5 -30.309219 -24.077052 13.400000
23015 5 -29.516681 -21.229314 13.400000
23016 5 -29.099966 -21.935346 13.400000
23017 5 -28.307428 -19.087607 13.400000
23018 5 -27.890713 -19.793639 13.400000
23019 5 -27.098175 -16.945901 13.400000
23020 5 -26.681460 -17.651933 13.400000
23021 5 -25.888922 -14.804194 13.400000
23022 5 -25.472207 -15.510226 13.400000
23023 5 -24.679669 -12.662488 13.400000
23024 5 -24.262953 -13.368520 13.400000
23025 5 -23.470415 -10.520781 13.400000
23026 5 -23.053700 -11.226813 13.400000
23027 5 -22.261162 -8.379075 13.400000
23028 5 -21.844447 -9.085107 13.400000
23029 5 -21.051909 -6.237368 13.400000
23030 5 -20.635194 -6.943401 13.400000
23031 5 -19.842656 -4.095662 13.400000
23032 5 -19.425941 -4.801694 13.400000
23033 5 -18.633403 -1.953955 13.400000
23034 5 -18.216687 -2.659988 13.400000
23035 5 -17.424149 0.187751 13.400000
23036 5 -17.007434 -0.518281 13.400000
23037 5 -16.214896 2.329458 13.400000
23038 5 -15.798181 1.623425 13.400000
23039 5 -15.005643 4.471164 13.400000
23040 5 -14.588928 3.765132 13.400000
23041 5 -13.796390 6.612871 13.400000
23042 5 -13.379675 5.906838 13.400000
23043 5 -12.587137 8.754577 13.400000
23044 5 -12.170421 8.048545 13.400000
23045 5 -11.377883 10.896284 13.400000
23046 5 -10.961168 10.190251 13.400000
23047 5 -10.168630 13.037990 13.400000
23048 5 -9.751915 12.331958 13.400000
23049 5 -8.959377 15.179697 13.400000
23050 5 -8.542662 14.473664 13.400000
23051 5 -7.750124 17.321403 13.400000
23052 5 -7.333409 16.615371 13.400000
23053 5 -6.540871 19.463110 13.400000
23054 5 -6.124155 18.757077 13.400000
23055 5 -5.331617 21.604816 13.400000
23056 5 -4.914902 20.898784 13.400000
23057 5 -4.122364 23.746523 13.400000
23058 5 -3.705649 23.040490 13.400000
23059 5 -2.913111 25.888229 13.400000
23060 5 -2.496396 25.182197 13.400000
23061 5 -1.703858 28.029936 13.400000
23062 5 -1.287143 27.323903 13.400000
23063 5 -0.494605 30.171642 13.400000
23064 5 -0.077889 29.465610 13.400000
23065 5 0.714649 32.313349 13.400000
23066 5 1.131364 31.607316 13.400000
23067 5 1.923902 34.455055 13.400000
23068 5 2.340617 33.749023 13.400000
23069 5 3.133155 36.596762 13.400000
23070 5 3.549870 35.890729 13.400000
23071 5 4.342408 38.738468 13.400000
23072 5 4.759123 38.032436 13.400000
23073 5 5.551661 40.880175 13.400000
23074 5 5.968377 40.174142 13.400000
23075 5 6.760915 43.021881 13.400000
23076 5 7.177630 42.315849 13.400000
23077 5 7.970168 45.163588 13.400000
23078 5 8.386883 44.457555 13.400000
23079 5 9.179421 47.305294 13.400000
23080 5 9.596136 46.599262 13.400000
23081 5 10.388674 49.447001 13.400000
23082 5 10.805389 48.740968 13.400000
23083 5 11.597927 51.588707 13.400000
23084 5 12.014643 50.882675 13.400000
23085 5 12.807181 53.730414 13.400000
23086 5 13.223896 53.024381 13.400000
23087 5 14.016434 55.872120 13.400000
23088 5 14.433149 55.166088 13.400000
23089 5 15.225687 58.013827 13.400000
23090 5 15.642402 57.307794 13.400000
23091 5 -47.614587 -57.614715 13.400000
23092 5 -47.197872 -58.320747 13.400000
23093 5 -46.405334 -55.473008 13.400000
23094 5 -45.988618 -56.179041 13.400000
23095 5 -45.196080 -53.331302 13.400000
23096 5 -44.779365 -54.037334 13.400000
23097 5 -43.986827 -51.189595 13.400000
23098 5 -43.570112 -51.895628 13.400000
23099 5 -42.777574 -49.047889 13.400000
23100 5 -42.360859 -49.753921 13.400000
23101 5 -41.568321 -46.906182 13.400000
23102 5 -41.151606 -47.612215 13.400000
23103 5 -40.359068 -44.764476 13.400000
23104 5 -39.942353 -45.470508 13.400000
23105 5 -39.149815 -42.622769 13.400000
23106 5 -38.733099 -43.328802 13.400000
23107 5 -37.940561 -40.481063 13.400000
23108 5 -37.523846 -41.187095 13.400000
23109 5 -36.731308 -38.339356 13.400000
23110 5 -36.314593 -39.045389 13.400000
23111 5 -35.522055 -36.197650 13.400000
23112 5 -35.105340 -36.903682 13.400000
23113 5 -34.312802 -34.055943 13.400000
23114 5 -33.896087 -34.761976 13.400000
23115 5 -33.103549 -31.914237 13.400000
23116 5 -32.686833 -32.620269 13.400000
23117 5 -31.894295 -29.772530 13.400000
23118 5 -31.477580 -30.478563 13.400000
23119 5 -30.685042 -27.630824 13.400000
23120 5 -30.268327 -28.336856 13.400000
23121 5 -29.475789 -25.489117 13.400000
23122 5 -29.059074 -26.195150 13.400000
23123 5 -28.266536 -23.347411 13.400000
23124 5 -27.849821 -24.053443 13.400000
23125 5 -27.057283 -21.205704 13.400000
23126 5 -26.640567 -21.911737 13.400000
23127 5 -25.848029 -19.063998 13.400000
23128 5 -25.431314 -19.770030 13.400000
23129 5 -24.638776 -16.922291 13.400000
23130 5 -24.222061 -17.628324 13.400000
23131 5 -23.429523 -14.780585 13.400000
23132 5 -23.012808 -15.486617 13.400000
23133 5 -22.220270 -12.638878 13.400000
23134 5 -21.803555 -13.344911 13.400000
23135 5 -21.011017 -10.497172 13.400000
23136 5 -20.594301 -11.203204 13.400000
23137 5 -19.801763 -8.355465 13.400000
23138 5 -19.385048 -9.061498 13.400000
23139 5 -18.592510 -6.213759 13.400000
23140 5 -18.175795 -6.919791 13.400000
23141 5 -17.383257 -4.072052 13.400000
23142 5 -16.966542 -4.778085 13.400000
23143 5 -16.174004 -1.930346 13.400000
23144 5 -15.757289 -2.636378 13.400000
23145 5 -14.964751 0.211361 13.400000
23146 5 -14.548035 -0.494672 13.400000
23147 5 -13.755497 2.353067 13.400000
23148 5 -13.338782 1.647035 13.400000
23149 5 -12.546244 4.494774 13.400000
23150 5 -12.129529 3.788741 13.400000
23151 5 -11.336991 6.636480 13.400000
23152 5 -10.920276 5.930448 13.400000
23153 5 -10.127738 8.778187 13.400000
23154 5 -9.711023 8.072154 13.400000
23155 5 -8.918485 10.919893 13.400000
23156 5 -8.501769 10.213861 13.400000
23157 5 -7.709231 13.061600 13.400000
23158 5 -7.292516 12.355567 13.400000
23159 5 -6.499978 15.203306 13.400000
23160 5 -6.083263 14.497274 13.400000
23161 5 -5.290725 17.345013 13.400000
23162 5 -4.874010 16.638980 13.400000
23163 5 -4.081472 19.486719 13.400000
23164 5 -3.664757 18.780687 13.400000
23165 5 -2.872219 21.628426 13.400000
23166 5 -2.455503 20.922393 13.400000
23167 5 -1.662965 23.770132 13.400000
23168 5 -1.246250 23.064100 13.400000
23169 5 -0.453712 25.911839 13.400000
23170 5 -0.036997 25.205806 13.400000
23171 5 0.755541 28.053545 13.400000
23172 5 1.172256 27.347513 13.400000
23173 5 1.964794 30.195252 13.400000
23174 5 2.381509 29.489219 13.400000
23175 5 3.174047 32.336958 13.400000
23176 5 3.590763 31.630926 13.400000
23177 5 4.383301 34.478665 13.400000
23178 5 4.800016 33.772632 13.400000
23179 5 5.592554 36.620371 13.400000
23180 5 6.009269 35.914339 13.400000
23181 5 6.801807 38.762078 13.400000
23182 5 7.218522 38.056045 13.400000
23183 5 8.011060 40.903784 13.400000
23184 5 8.427775 40.197752 13.400000
23185 5 9.220313 43.045491 13.400000
23186 5 9.637029 42.339458 13.400000
23187 5 10.429567 45.187197 13.400000
23188 5 10.846282 44.481165 13.400000
23189 5 11.638820 47.328904 13.400000
23190 5 12.055535 46.622871 13.400000
23191 5 12.848073 49.470610 13.400000
23192 5 13.264788 48.764578 13.400000
23193 5 14.057326 51.612317 13.400000
23194 5 14.474041 50.906284 13.400000
23195 5 15.266579 53.754023 13.400000
23196 5 15.683295 53.047991 13.400000
23197 5 16.475833 55.895729 13.400000
23198 5 16.892548 55.189697 13.400000
23199 5 17.685086 58.037436 13.400000
23200 5 18.101801 57.331404 13.400000
23201 5 -45.155188 -57.591105 13.400000
23202 5 -44.738473 -58.297138 13.400000
23203 5 -43.945935 -55.449399 13.400000
23204 5 -43.529220 -56.155431 13.400000
23205 5 -42.736682 -53.307692 13.400000
23206 5 -42.319966 -54.013725 13.400000
23207 5 -41.527428 -51.165986 13.400000
23208 5 -41.110713 -51.872018 13.400000
23209 5 -40.318175 -49.024279 13.400000
23210 5 -39.901460 -49.730312 13.400000
23211 5 -39.108922 -46.882573 13.400000
23212 5 -38.692207 -47.588605 13.400000
23213 5 -37.899669 -44.740866 13.400000
23214 5 -37.482954 -45.446899 13.400000
23215 5 -36.690416 -42.599160 13.400000
23216 5 -36.273700 -43.305192 13.400000
23217 5 -35.481162 -40.457453 13.400000
23218 5 -35.064447 -41.163486 13.400000
23219 5 -34.271909 -38.315747 13.400000
23220 5 -33.855194 -39.021779 13.400000
23221 5 -33.062656 -36.174040 13.400000
23222 5 -32.645941 -36.880073 13.400000
23223 5 -31.853403 -34.032334 13.400000
23224 5 -31.436688 -34.738366 13.400000
23225 5 -30.644150 -31.890628 13.400000
23226 5 -30.227434 -32.596660 13.400000
23227 5 -29.434897 -29.748921 13.400000
23228 5 -29.018181 -30.454953 13.400000
23229 5 -28.225643 -27.607215 13.400000
23230 5 -27.808928 -28.313247 13.400000
23231 5 -27.016390 -25.465508 13.400000
23232 5 -26.599675 -26.171540 13.400000
23233 5 -25.807137 -23.323802 13.400000
23234 5 -25.390422 -24.029834 13.400000
23235 5 -24.597884 -21.182095 13.400000
23236 5 -24.181169 -21.888127 13.400000
23237 5 -23.388631 -19.040389 13.400000
23238 5 -22.971915 -19.746421 13.400000
23239 5 -22.179377 -16.898682 13.400000
23240 5 -21.762662 -17.604714 13.400000
23241 5 -20.970124 -14.756976 13.400000
23242 5 -20.553409 -15.463008 13.400000
23243 5 -19.760871 -12.615269 13.400000
23244 5 -19.344156 -13.321301 13.400000
23245 5 -18.551618 -10.473563 13.400000
23246 5 -18.134903 -11.179595 13.400000
23247 5 -17.342365 -8.331856 13.400000
23248 5 -16.925649 -9.037888 13.400000
23249 5 -16.133111 -6.190150 13.400000
23250 5 -15.716396 -6.896182 13.400000
23251 5 -14.923858 -4.048443 13.400000
23252 5 -14.507143 -4.754475 13.400000
23253 5 -13.714605 -1.906737 13.400000
23254 5 -13.297890 -2.612769 13.400000
23255 5 -12.505352 0.234970 13.400000
23256 5 -12.088637 -0.471063 13.400000
23257 5 -11.296099 2.376676 13.400000
23258 5 -10.879383 1.670644 13.400000
23259 5 -10.086845 4.518383 13.400000
23260 5 -9.670130 3.812350 13.400000
23261 5 -8.877592 6.660089 13.400000
23262 5 -8.460877 5.954057 13.400000
23263 5 -7.668339 8.801796 13.400000
23264 5 -7.251624 8.095763 13.400000
23265 5 -6.459086 10.943502 13.400000
23266 5 -6.042371 10.237470 13.400000
23267 5 -5.249833 13.085209 13.400000
23268 5 -4.833117 12.379176 13.400000
23269 5 -4.040579 15.226915 13.400000
23270 5 -3.623864 14.520883 13.400000
23271 5 -2.831326 17.368622 13.400000
23272 5 -2.414611 16.662589 13.400000
23273 5 -1.622073 19.510328 13.400000
23274 5 -1.205358 18.804296 13.400000
23275 5 -0.412820 21.652035 13.400000
23276 5 0.003895 20.946002 13.400000
23277 5 0.796433 23.793741 13.400000
23278 5 1.213149 23.087709 13.400000
23279 5 2.005687 25.935448 13.400000
23280 5 2.422402 25.229415 13.400000
23281 5 3.214940 28.077154 13.400000
23282 5 3.631655 27.371122 13.400000
23283 5 4.424193 30.218861 13.400000
23284 5 4.840908 29.512828 13.400000
23285 5 5.633446 32.360567 13.400000
23286 5 6.050161 31.654535 13.400000
23287 5 6.842699 34.502274 13.400000
23288 5 7.259415 33.796241 13.400000
23289 5 8.051953 36.643980 13.400000
23290 5 8.468668 35.937948 13.400000
23291 5 9.261206 38.785687 13.400000
23292 5 9.677921 38.079654 13.400000
23293 5 10.470459 40.927393 13.400000
23294 5 10.887174 40.221361 13.400000
23295 5 11.679712 43.069100 13.400000
23296 5 12.096427 42.363067 13.400000
23297 5 12.888965 45.210806 13.400000
23298 5 13.305681 44.504774 13.400000
23299 5 14.098219 47.352513 13.400000
23300 5 14.514934 46.646480 13.400000
23301 5 15.307472 49.494219 13.400000
23302 5 15.724187 48.788187 13.400000
23303 5 16.516725 51.635926 13.400000
23304 5 16.933440 50.929893 13.400000
23305 5 17.725978 53.777632 13.400000
23306 5 18.142693 53.071600 13.400000
23307 5 18.935231 55.919339 13.400000
23308 5 19.351947 55.213306 13.400000
23309 5 20.144485 58.061045 13.400000
23310 5 20.561200 57.355013 13.400000
23311 5 -42.695789 -57.567496 13.400000
23312 5 -42.279074 -58.273529 13.400000
23313 5 -41.486536 -55.425790 13.400000
23314 5 -41.069821 -56.131822 13.400000
23315 5 -40.277283 -53.284083 13.400000
23316 5 -39.860568 -53.990116 13.400000
23317 5 -39.068030 -51.142377 13.400000
23318 5 -38.651314 -51.848409 13.400000
23319 5 -37.858776 -49.000670 13.400000
23320 5 -37.442061 -49.706703 13.400000
23321 5 -36.649523 -46.858964 13.400000
23322 5 -36.232808 -47.564996 13.400000
23323 5 -35.440270 -44.717257 13.400000
23324 5 -35.023555 -45.423290 13.400000
23325 5 -34.231017 -42.575551 13.400000
23326 5 -33.814302 -43.281583 13.400000
23327 5 -33.021764 -40.433844 13.400000
23328 5 -32.605048 -41.139877 13.400000
23329 5 -31.812510 -38.292138 13.400000
23330 5 -31.395795 -38.998170 13.400000
23331 5 -30.603257 -36.150431 13.400000
23332 5 -30.186542 -36.856464 13.400000
23333 5 -29.394004 -34.008725 13.400000
23334 5 -28.977289 -34.714757 13.400000
23335 5 -28.184751 -31.867018 13.400000
23336 5 -27.768036 -32.573051 13.400000
23337 5 -26.975498 -29.725312 13.400000
23338 5 -26.558782 -30.431344 13.400000
23339 5 -25.766244 -27.583605 13.400000
23340 5 -25.349529 -28.289638 13.400000
23341 5 -24.556991 -25.441899 13.400000
23342 5 -24.140276 -26.147931 13.400000
23343 5 -23.347738 -23.300192 13.400000
23344 5 -22.931023 -24.006225 13.400000
23345 5 -22.138485 -21.158486 13.400000
23346 5 -21.721770 -21.864518 13.400000
23347 5 -20.929232 -19.016779 13.400000
23348 5 -20.512516 -19.722812 13.400000
23349 5 -19.719978 -16.875073 13.400000
23350 5 -19.303263 -17.581105 13.400000
23351 5 -18.510725 -14.733366 13.400000
23352 5 -18.094010 -15.439399 13.400000
23353 5 -17.301472 -12.591660 13.400000
23354 5 -16.884757 -13.297692 13.400000
23355 5 -16.092219 -10.449953 13.400000
23356 5 -15.675504 -11.155986 13.400000
23357 5 -14.882966 -8.308247 13.400000
23358 5 -14.466250 -9.014279 13.400000
23359 5 -13.673713 -6.166540 13.400000
23360 5 -13.256997 -6.872573 13.400000
23361 5 -12.464459 -4.024834 13.400000
23362 5 -12.047744 -4.730866 13.400000
23363 5 -11.255206 -1.883127 13.400000
23364 5 -10.838491 -2.589160 13.400000
23365 5 -10.045953 0.258579 13.400000
23366 5 -9.629238 -0.447453 13.400000
23367 5 -8.836700 2.400286 13.400000
23368 5 -8.419985 1.694253 13.400000
23369 5 -7.627447 4.541992 13.400000
23370 5 -7.210731 3.835960 13.400000
23371 5 -6.418193 6.683699 13.400000
23372 5 -6.001478 5.977666 13.400000
23373 5 -5.208940 8.825405 13.400000
23374 5 -4.792225 8.119373 13.400000
23375 5 -3.999687 10.967112 13.400000
23376 5 -3.582972 10.261079 13.400000
23377 5 -2.790434 13.108818 13.400000
23378 5 -2.373719 12.402786 13.400000
23379 5 -1.581181 15.250525 13.400000
23380 5 -1.164465 14.544492 13.400000
23381 5 -0.371927 17.392231 13.400000
23382 5 0.044788 16.686199 13.400000
23383 5 0.837326 19.533938 13.400000
23384 5 1.254041 18.827905 13.400000
23385 5 2.046579 21.675644 13.400000
23386 5 2.463294 20.969612 13.400000
23387 5 3.255832 23.817351 13.400000
23388 5 3.672547 23.111318 13.400000
23389 5 4.465085 25.959057 13.400000
23390 5 4.881801 25.253025 13.400000
23391 5 5.674339 28.100764 13.400000
23392 5 6.091054 27.394731 13.400000
23393 5 6.883592 30.242470 13.400000
23394 5 7.300307 29.536438 13.400000
23395 5 8.092845 32.384177 13.400000
23396 5 8.509560 31.678144 13.400000
23397 5 9.302098 34.525883 13.400000
23398 5 9.718813 33.819851 13.400000
23399 5 10.511351 36.667590 13.400000
23400 5 10.928067 35.961557 13.400000
23401 5 11.720605 38.809296 13.400000
23402 5 12.137320 38.103264 13.400000
23403 5 12.929858 40.951003 13.400000
23404 5 13.346573 40.244970 13.400000
23405 5 14.139111 43.092709 13.400000
23406 5 14.555826 42.386677 13.400000
23407 5 15.348364 45.234416 13.400000
23408 5 15.765079 44.528383 13.400000
23409 5 16.557617 47.376122 13.400000
23410 5 16.974333 46.670090 13.400000
23411 5 17.766871 49.517829 13.400000
23412 5 18.183586 48.811796 13.400000
23413 5 18.976124 51.659535 13.400000
23414 5 19.392839 50.953503 13.400000
23415 5 20.185377 53.801242 13.400000
23416 5 20.602092 53.095209 13.400000
23417 5 21.394630 55.942948 13.400000
23418 5 21.811345 55.236916 13.400000
23419 5 22.603883 58.084655 13.400000
23420 5 23.020599 57.378622 13.400000
23421 5 -40.236390 -57.543887 13.400000
23422 5 -39.819675 -58.249919 13.400000
23423 5 -39.027137 -55.402180 13.400000
23424 5 -38.610422 -56.108213 13.400000
23425 5 -37.817884 -53.260474 13.400000
23426 5 -37.401169 -53.966506 13.400000
23427 5 -36.608631 -51.118767 13.400000
23428 5 -36.191916 -51.824800 13.400000
23429 5 -35.399378 -48.977061 13.400000
23430 5 -34.982662 -49.683093 13.400000
23431 5 -34.190124 -46.835354 13.400000
23432 5 -33.773409 -47.541387 13.400000
23433 5 -32.980871 -44.693648 13.400000
23434 5 -32.564156 -45.399680 13.400000
23435 5 -31.771618 -42.551941 13.400000
23436 5 -31.354903 -43.257974 13.400000
23437 5 -30.562365 -40.410235 13.400000
23438 5 -30.145650 -41.116267 13.400000
23439 5 -29.353112 -38.268528 13.400000
23440 5 -28.936396 -38.974561 13.400000
23441 5 -28.143858 -36.126822 13.400000
23442 5 -27.727143 -36.832854 13.400000
23443 5 -26.934605 -33.985115 13.400000
23444 5 -26.517890 -34.691148 13.400000
23445 5 -25.725352 -31.843409 13.400000
23446 5 -25.308637 -32.549441 13.400000
23447 5 -24.516099 -29.701702 13.400000
23448 5 -24.099384 -30.407735 13.400000
23449 5 -23.306846 -27.559996 13.400000
23450 5 -22.890130 -28.266028 13.400000
23451 5 -22.097592 -25.418289 13.400000
23452 5 -21.680877 -26.124322 13.400000
23453 5 -20.888339 -23.276583 13.400000
23454 5 -20.471624 -23.982615 13.400000
23455 5 -19.679086 -21.134877 13.400000
23456 5 -19.262371 -21.840909 13.400000
23457 5 -18.469833 -18.993170 13.400000
23458 5 -18.053118 -19.699202 13.400000
23459 5 -17.260580 -16.851464 13.400000
23460 5 -16.843864 -17.557496 13.400000
23461 5 -16.051326 -14.709757 13.400000
23462 5 -15.634611 -15.415789 13.400000
23463 5 -14.842073 -12.568051 13.400000
23464 5 -14.425358 -13.274083 13.400000
23465 5 -13.632820 -10.426344 13.400000
23466 5 -13.216105 -11.132376 13.400000
23467 5 -12.423567 -8.284638 13.400000
23468 5 -12.006852 -8.990670 13.400000
23469 5 -11.214314 -6.142931 13.400000
23470 5 -10.797598 -6.848963 13.400000
23471 5 -10.005060 -4.001225 13.400000
23472 5 -9.588345 -4.707257 13.400000
23473 5 -8.795807 -1.859518 13.400000
23474 5 -8.379092 -2.565550 13.400000
23475 5 -7.586554 0.282188 13.400000
23476 5 -7.169839 -0.423844 13.400000
23477 5 -6.377301 2.423895 13.400000
23478 5 -5.960586 1.717863 13.400000
23479 5 -5.168048 4.565601 13.400000
23480 5 -4.751332 3.859569 13.400000
23481 5 -3.958795 6.707308 13.400000
23482 5 -3.542079 6.001275 13.400000
23483 5 -2.749541 8.849014 13.400000
23484 5 -2.332826 8.142982 13.400000
23485 5 -1.540288 10.990721 13.400000
23486 5 -1.123573 10.284688 13.400000
23487 5 -0.331035 13.132427 13.400000
23488 5 0.085680 12.426395 13.400000
23489 5 0.878218 15.274134 13.400000
23490 5 1.294933 14.568101 13.400000
23491 5 2.087471 17.415840 13.400000
23492 5 2.504187 16.709808 13.400000
23493 5 3.296725 19.557547 13.400000
23494 5 3.713440 18.851514 13.400000
23495 5 4.505978 21.699253 13.400000
23496 5 4.922693 20.993221 13.400000
23497 5 5.715231 23.840960 13.400000
23498 5 6.131946 23.134927 13.400000
23499 5 6.924484 25.982666 13.400000
23500 5 7.341199 25.276634 13.400000
23501 5 8.133737 28.124373 13.400000
23502 5 8.550453 27.418340 13.400000
23503 5 9.342991 30.266079 13.400000
23504 5 9.759706 29.560047 13.400000
23505 5 10.552244 32.407786 13.400000
23506 5 10.968959 31.701753 13.400000
23507 5 11.761497 34.549492 13.400000
23508 5 12.178212 33.843460 13.400000
23509 5 12.970750 36.691199 13.400000
23510 5 13.387465 35.985166 13.400000
23511 5 14.180003 38.832905 13.400000
23512 5 14.596719 38.126873 13.400000
23513 5 15.389257 40.974612 13.400000
23514 5 15.805972 40.268579 13.400000
23515 5 16.598510 43.116318 13.400000
23516 5 17.015225 42.410286 13.400000
23517 5 17.807763 45.258025 13.400000
23518 5 18.224478 44.551992 13.400000
23519 5 19.017016 47.399731 13.400000
23520 5 19.433731 46.693699 13.400000
23521 5 20.226269 49.541438 13.400000
23522 5 20.642985 48.835405 13.400000
23523 5 21.435523 51.683144 13.400000
23524 5 21.852238 50.977112 13.400000
23525 5 22.644776 53.824851 13.400000
23526 5 23.061491 53.118818 13.400000
23527 5 23.854029 55.966557 13.400000
23528 5 24.270744 55.260525 13.400000
23529 5 25.063282 58.108264 13.400000
23530 5 25.479997 57.402231 13.400000
23531 5 -37.776992 -57.520278 13.400000
23532 5 -37.360276 -58.226310 13.400000
23533 5 -36.567738 -55.378571 13.400000
23534 5 -36.151023 -56.084604 13.400000
23535 5 -35.358485 -53.236865 13.400000
23536 5 -34.941770 -53.942897 13.400000
23537 5 -34.149232 -51.095158 13.400000
23538 5 -33.732517 -51.801191 13.400000
23539 5 -32.939979 -48.953452 13.400000
23540 5 -32.523264 -49.659484 13.400000
23541 5 -31.730726 -46.811745 13.400000
23542 5 -31.314010 -47.517778 13.400000
23543 5 -30.521472 -44.670039 13.400000
23544 5 -30.104757 -45.376071 13.400000
23545 5 -29.312219 -42.528332 13.400000
23546 5 -28.895504 -43.234365 13.400000
23547 5 -28.102966 -40.386626 13.400000
23548 5 -27.686251 -41.092658 13.400000
23549 5 -26.893713 -38.244919 13.400000
23550 5 -26.476998 -38.950952 13.400000
23551 5 -25.684460 -36.103213 13.400000
23552 5 -25.267744 -36.809245 13.400000
23553 5 -24.475206 -33.961506 13.400000
23554 5 -24.058491 -34.667539 13.400000
23555 5 -23.265953 -31.819800 13.400000
23556 5 -22.849238 -32.525832 13.400000
23557 5 -22.056700 -29.678093 13.400000
23558 5 -21.639985 -30.384126 13.400000
23559 5 -20.847447 -27.536387 13.400000
23560 5 -20.430732 -28.242419 13.400000
23561 5 -19.638194 -25.394680 13.400000
23562 5 -19.221478 -26.100713 13.400000
23563 5 -18.428940 -23.252974 13.400000
23564 5 -18.012225 -23.959006 13.400000
23565 5 -17.219687 -21.111267 13.400000
23566 5 -16.802972 -21.817300 13.400000
23567 5 -16.010434 -18.969561 13.400000
23568 5 -15.593719 -19.675593 13.400000
23569 5 -14.801181 -16.827854 13.400000
23570 5 -14.384466 -17.533887 13.400000
23571 5 -13.591928 -14.686148 13.400000
23572 5 -13.175212 -15.392180 13.400000
23573 5 -12.382674 -12.544441 13.400000
23574 5 -11.965959 -13.250474 13.400000
23575 5 -11.173421 -10.402735 13.400000
23576 5 -10.756706 -11.108767 13.400000
23577 5 -9.964168 -8.261028 13.400000
23578 5 -9.547453 -8.967061 13.400000
23579 5 -8.754915 -6.119322 13.400000
23580 5 -8.338200 -6.825354 13.400000
23581 5 -7.545662 -3.977615 13.400000
23582 5 -7.128946 -4.683648 13.400000
23583 5 -6.336408 -1.835909 13.400000
23584 5 -5.919693 -2.541941 13.400000
23585 5 -5.127155 0.305798 13.400000
23586 5 -4.710440 -0.400235 13.400000
23587 5 -3.917902 2.447504 13.400000
23588 5 -3.501187 1.741472 13.400000
23589 5 -2.708649 4.589211 13.400000
23590 5 -2.291934 3.883178 13.400000
23591 5 -1.499396 6.730917 13.400000
23592 5 -1.082680 6.024885 13.400000
23593 5 -0.290142 8.872624 13.400000
23594 5 0.126573 8.166591 13.400000
23595 5 0.919111 11.014330 13.400000
23596 5 1.335826 10.308298 13.400000
23597 5 2.128364 13.156037 13.400000
23598 5 2.545079 12.450004 13.400000
23599 5 3.337617 15.297743 13.400000
23600 5 3.754332 14.591711 13.400000
23601 5 4.546870 17.439450 13.400000
23602 5 4.963586 16.733417 13.400000
23603 5 5.756124 19.581156 13.400000
23604 5 6.172839 18.875124 13.400000
23605 5 6.965377 21.722863 13.400000
23606 5 7.382092 21.016830 13.400000
23607 5 8.174630 23.864569 13.400000
23608 5 8.591345 23.158537 13.400000
23609 5 9.383883 26.006276 13.400000
23610 5 9.800598 25.300243 13.400000
23611 5 10.593136 28.147982 13.400000
23612 5 11.009852 27.441950 13.400000
23613 5 11.802389 30.289689 13.400000
23614 5 12.219105 29.583656 13.400000
23615 5 13.011643 32.431395 13.400000
23616 5 13.428358 31.725363 13.400000
23617 5 14.220896 34.573102 13.400000
23618 5 14.637611 33.867069 13.400000
23619 5 15.430149 36.714808 13.400000
23620 5 15.846864 36.008776 13.400000
23621 5 16.639402 38.856515 13.400000
23622 5 17.056117 38.150482 13.400000
23623 5 17.848655 40.998221 13.400000
23624 5 18.265371 40.292189 13.400000
23625 5 19.057909 43.139928 13.400000
23626 5 19.474624 42.433895 13.400000
23627 5 20.267162 45.281634 13.400000
23628 5 20.683877 44.575602 13.400000
23629 5 21.476415 47.423341 13.400000
23630 5 21.893130 46.717308 13.400000
23631 5 22.685668 49.565047 13.400000
23632 5 23.102383 48.859015 13.400000
23633 5 23.894921 51.706754 13.400000
23634 5 24.311637 51.000721 13.400000
23635 5 25.104175 53.848460 13.400000
23636 5 25.520890 53.142428 13.400000
23637 5 26.313428 55.990167 13.400000
23638 5 26.730143 55.284134 13.400000
23639 5 27.522681 58.131873 13.400000
23640 5 27.939396 57.425841 13.400000
23641 5 -35.317593 -57.496668 13.400000
23642 5 -34.900878 -58.202701 13.400000
23643 5 -34.108340 -55.354962 13.400000
23644 5 -33.691624 -56.060994 13.400000
23645 5 -32.899086 -53.213255 13.400000
23646 5 -32.482371 -53.919288 13.400000
23647 5 -31.689833 -51.071549 13.400000
23648 5 -31.273118 -51.777581 13.400000
23649 5 -30.480580 -48.929842 13.400000
23650 5 -30.063865 -49.635875 13.400000
23651 5 -29.271327 -46.788136 13.400000
23652 5 -28.854612 -47.494168 13.400000
23653 5 -28.062074 -44.646429 13.400000
23654 5 -27.645358 -45.352462 13.400000
23655 5 -26.852820 -42.504723 13.400000
23656 5 -26.436105 -43.210755 13.400000
23657 5 -25.643567 -40.363016 13.400000
23658 5 -25.226852 -41.069049 13.400000
23659 5 -24.434314 -38.221310 13.400000
23660 5 -24.017599 -38.927342 13.400000
23661 5 -23.225061 -36.079603 13.400000
23662 5 -22.808346 -36.785636 13.400000
23663 5 -22.015808 -33.937897 13.400000
23664 5 -21.599092 -34.643929 13.400000
23665 5 -20.806554 -31.796190 13.400000
23666 5 -20.389839 -32.502223 13.400000
23667 5 -19.597301 -29.654484 13.400000
23668 5 -19.180586 -30.360516 13.400000
23669 5 -18.388048 -27.512777 13.400000
23670 5 -17.971333 -28.218810 13.400000
23671 5 -17.178795 -25.371071 13.400000
23672 5 -16.762080 -26.077103 13.400000
23673 5 -15.969542 -23.229364 13.400000
23674 5 -15.552826 -23.935397 13.400000
23675 5 -14.760288 -21.087658 13.400000
23676 5 -14.343573 -21.793690 13.400000
23677 5 -13.551035 -18.945951 13.400000
23678 5 -13.134320 -19.651984 13.400000
23679 5 -12.341782 -16.804245 13.400000
23680 5 -11.925067 -17.510277 13.400000
23681 5 -11.132529 -14.662539 13.400000
23682 5 -10.715814 -15.368571 13.400000
23683 5 -9.923276 -12.520832 13.400000
23684 5 -9.506560 -13.226864 13.400000
23685 5 -8.714022 -10.379126 13.400000
23686 5 -8.297307 -11.085158 13.400000
23687 5 -7.504769 -8.237419 13.400000
23688 5 -7.088054 -8.943451 13.400000
23689 5 -6.295516 -6.095713 13.400000
23690 5 -5.878801 -6.801745 13.400000
23691 5 -5.086263 -3.954006 13.400000
23692 5 -4.669548 -4.660038 13.400000
23693 5 -3.877010 -1.812300 13.400000
23694 5 -3.460294 -2.518332 13.400000
23695 5 -2.667756 0.329407 13.400000
23696 5 -2.251041 -0.376625 13.400000
23697 5 -1.458503 2.471113 13.400000
23698 5 -1.041788 1.765081 13.400000
23699 5 -0.249250 4.612820 13.400000
23700 5 0.167465 3.906788 13.400000
23701 5 0.960003 6.754526 13.400000
23702 5 1.376718 6.048494 13.400000
23703 5 2.169256 8.896233 13.400000
23704 5 2.585972 8.190201 13.400000
23705 5 3.378510 11.037939 13.400000
23706 5 3.795225 10.331907 13.400000
23707 5 4.587763 13.179646 13.400000
23708 5 5.004478 12.473613 13.400000
23709 5 5.797016 15.321352 13.400000
23710 5 6.213731 14.615320 13.400000
23711 5 7.006269 17.463059 13.400000
23712 5 7.422984 16.757026 13.400000
23713 5 8.215522 19.604765 13.400000
23714 5 8.632238 18.898733 13.400000
23715 5 9.424776 21.746472 13.400000
23716 5 9.841491 21.040439 13.400000
23717 5 10.634029 23.888178 13.400000
23718 5 11.050744 23.182146 13.400000
23719 5 11.843282 26.029885 13.400000
23720 5 12.259997 25.323852 13.400000
23721 5 13.052535 28.171591 13.400000
23722 5 13.469250 27.465559 13.400000
23723 5 14.261788 30.313298 13.400000
23724 5 14.678504 29.607265 13.400000
23725 5 15.471042 32.455004 13.400000
23726 5 15.887757 31.748972 13.400000
23727 5 16.680295 34.596711 13.400000
23728 5 17.097010 33.890678 13.400000
23729 5 17.889548 36.738417 13.400000
23730 5 18.306263 36.032385 13.400000
23731 5 19.098801 38.880124 13.400000
23732 5 19.515516 38.174091 13.400000
23733 5 20.308054 41.021830 13.400000
23734 5 20.724770 40.315798 13.400000
23735 5 21.517307 43.163537 13.400000
23736 5 21.934023 42.457504 13.400000
23737 5 22.726561 45.305243 13.400000
23738 5 23.143276 44.599211 13.400000
23739 5 23.935814 47.446950 13.400000
23740 5 24.352529 46.740917 13.400000
23741 5 25.145067 49.588656 13.400000
23742 5 25.561782 48.882624 13.400000
23743 5 26.354320 51.730363 13.400000
23744 5 26.771035 51.024330 13.400000
23745 5 27.563573 53.872069 13.400000
23746 5 27.980289 53.166037 13.400000
23747 5 28.772827 56.013776 13.400000
23748 5 29.189542 55.307743 13.400000
23749 5 29.982080 58.155482 13.400000
23750 5 30.398795 57.449450 13.400000
23751 5 -32.858194 -57.473059 13.400000
23752 5 -32.441479 -58.179092 13.400000
23753 5 -31.648941 -55.331353 13.400000
23754 5 -31.232226 -56.037385 13.400000
23755 5 -30.439688 -53.189646 13.400000
23756 5 -30.022972 -53.895679 13.400000
23757 5 -29.230434 -51.047940 13.400000
23758 5 -28.813719 -51.753972 13.400000
23759 5 -28.021181 -48.906233 13.400000
23760 5 -27.604466 -49.612266 13.400000
23761 5 -26.811928 -46.764527 13.400000
23762 5 -26.395213 -47.470559 13.400000
23763 5 -25.602675 -44.622820 13.400000
23764 5 -25.185960 -45.328853 13.400000
23765 5 -24.393422 -42.481114 13.400000
23766 5 -23.976706 -43.187146 13.400000
23767 5 -23.184168 -40.339407 13.400000
23768 5 -22.767453 -41.045440 13.400000
23769 5 -21.974915 -38.197701 13.400000
23770 5 -21.558200 -38.903733 13.400000
23771 5 -20.765662 -36.055994 13.400000
23772 5 -20.348947 -36.762027 13.400000
23773 5 -19.556409 -33.914288 13.400000
23774 5 -19.139694 -34.620320 13.400000
23775 5 -18.347156 -31.772581 13.400000
23776 5 -17.930440 -32.478614 13.400000
23777 5 -17.137902 -29.630875 13.400000
23778 5 -16.721187 -30.336907 13.400000
23779 5 -15.928649 -27.489168 13.400000
23780 5 -15.511934 -28.195201 13.400000
23781 5 -14.719396 -25.347462 13.400000
23782 5 -14.302681 -26.053494 13.400000
23783 5 -13.510143 -23.205755 13.400000
23784 5 -13.093428 -23.911788 13.400000
23785 5 -12.300890 -21.064049 13.400000
23786 5 -11.884174 -21.770081 13.400000
23787 5 -11.091636 -18.922342 13.400000
23788 5 -10.674921 -19.628375 13.400000
23789 5 -9.882383 -16.780636 13.400000
23790 5 -9.465668 -17.486668 13.400000
23791 5 -8.673130 -14.638929 13.400000
23792 5 -8.256415 -15.344962 13.400000
23793 5 -7.463877 -12.497223 13.400000
23794 5 -7.047162 -13.203255 13.400000
23795 5 -6.254624 -10.355516 13.400000
23796 5 -5.837908 -11.061549 13.400000
23797 5 -5.045370 -8.213810 13.400000
23798 5 -4.628655 -8.919842 13.400000
23799 5 -3.836117 -6.072103 13.400000
23800 5 -3.419402 -6.778136 13.400000
23801 5 -2.626864 -3.930397 13.400000
23802 5 -2.210149 -4.636429 13.400000
23803 5 -1.417611 -1.788690 13.400000
23804 5 -1.000896 -2.494723 13.400000
23805 5 -0.208358 0.353016 13.400000
23806 5 0.208358 -0.353016 13.400000
23807 5 1.000896 2.494723 13.400000
23808 5 1.417611 1.788690 13.400000
23809 5 2.210149 4.636429 13.400000
23810 5 2.626864 3.930397 13.400000
23811 5 3.419402 6.778136 13.400000
23812 5 3.836117 6.072103 13.400000
23813 5 4.628655 8.919842 13.400000
23814 5 5.045370 8.213810 13.400000
23815 5 5.837908 11.061549 13.400000
23816 5 6.254624 10.355516 13.400000
23817 5 7.047162 13.203255 13.400000
23818 5 7.463877 12.497223 13.400000
23819 5 8.256415 15.344962 13.400000
23820 5 8.673130 14.638929 13.400000
23821 5 9.465668 17.486668 13.400000
23822 5 9.882383 16.780636 13.400000
23823 5 10.674921 19.628375 13.400000
23824 5 11.091636 18.922342 13.400000
23825 5 11.884174 21.770081 13.400000
23826 5 12.300890 21.064049 13.400000
23827 5 13.093428 23.911788 13.400000
23828 5 13.510143 23.205755 13.400000
23829 5 14.302681 26.053494 13.400000
23830 5 14.719396 25.347462 13.400000
23831 5 15.511934 28.195201 13.400000
23832 5 15.928649 27.489168 13.400000
23833 5 16.721187 30.336907 13.400000
23834 5 17.137902 29.630875 13.400000
23835 5 17.930440 32.478614 13.400000
23836 5 18.347156 31.772581 13.400000
23837 5 19.139694 34.620320 13.400000
23838 5 19.556409 33.914288 13.400000
23839 5 20.348947 36.762027 13.400000
23840 5 20.765662 36.055994 13.400000
23841 5 21.558200 38.903733 13.400000
23842 5 21.974915 38.197701 13.400000
23843 5 22.767453 41.045440 13.400000
23844 5 23.184168 40.339407 13.400000
23845 5 23.976706 43.187146 13.400000
23846 5 24.393422 42.481114 13.400000
23847 5 25.185960 45.328853 13.400000
23848 5 25.602675 44.622820 13.400000
23849 5 26.395213 47.470559 13.400000
23850 5 26.811928 46.764527 13.400000
23851 5 27.604466 49.612266 13.400000
23852 5 28.021181 48.906233 13.400000
23853 5 28.813719 51.753972 13.400000
23854 5 29.230434 51.047940 13.400000
23855 5 30.022972 53.895679 13.400000
23856 5 30.439688 53.189646 13.400000
23857 5 31.232226 56.037385 13.400000
23858 5 31.648941 55.331353 13.400000
23859 5 32.441479 58.179092 13.400000
23860 5 32.858194 57.473059 13.400000
23861 5 -30.398795 -57.449450 13.400000
23862 5 -29.982080 -58.155482 13.400000
23863 5 -29.189542 -55.307743 13.400000
23864 5 -28.772827 -56.013776 13.400000
23865 5 -27.980289 -53.166037 13.400000
23866 5 -27.563573 -53.872069 13.400000
23867 5 -26.771035 -51.024330 13.400000
23868 5 -26.354320 -51.730363 13.400000
23869 5 -25.561782 -48.882624 13.400000
23870 5 -25.145067 -49.588656 13.400000
23871 5 -24.352529 -46.740917 13.400000
23872 5 -23.935814 -47.446950 13.400000
23873 5 -23.143276 -44.599211 13.400000
23874 5 -22.726561 -45.305243 13.400000
23875 5 -21.934023 -42.457504 13.400000
23876 5 -21.517307 -43.163537 13.400000
23877 5 -20.724770 -40.315798 13.400000
23878 5 -20.308054 -41.021830 13.400000
23879 5 -19.515516 -38.174091 13.400000
23880 5 -19.098801 -38.880124 13.400000
23881 5 -18.306263 -36.032385 13.400000
23882 5 -17.889548 -36.738417 13.400000
23883 5 -17.097010 -33.890678 13.400000
23884 5 -16.680295 -34.596711 13.400000
23885 5 -15.887757 -31.748972 13.400000
23886 5 -15.471042 -32.455004 13.400000
23887 5 -14.678504 -29.607265 13.400000
23888 5 -14.261788 -30.313298 13.400000
23889 5 -13.469250 -27.465559 13.400000
23890 5 -13.052535 -28.171591 13.400000
23891 5 -12.259997 -25.323852 13.400000
23892 5 -11.843282 -26.029885 13.400000
23893 5 -11.050744 -23.182146 13.400000
23894 5 -10.634029 -23.888178 13.400000
23895 5 -9.841491 -21.040439 13.400000
23896 5 -9.424776 -21.746472 13.400000
23897 5 -8.632238 -18.898733 13.400000
23898 5 -8.215522 -19.604765 13.400000
23899 5 -7.422984 -16.757026 13.400000
23900 5 -7.006269 -17.463059 13.400000
23901 5 -6.213731 -14.615320 13.400000
23902 5 -5.797016 -15.321352 13.400000
23903 5 -5.004478 -12.473613 13.400000
23904 5 -4.587763 -13.179646 13.400000
23905 5 -3.795225 -10.331907 13.400000
23906 5 -3.378510 -11.037939 13.400000
23907 5 -2.585972 -8.190201 13.400000
23908 5 -2.169256 -8.896233 13.400000
23909 5 -1.376718 -6.048494 13.400000
23910 5 -0.960003 -6.754526 13.400000
23911 5 -0.167465 -3.906788 13.400000
23912 5 0.249250 -4.612820 13.400000
23913 5 1.041788 -1.765081 13.400000
23914 5 1.458503 -2.471113 13.400000
23915 5 2.251041 0.376625 13.400000
23916 5 2.667756 -0.329407 13.400000
23917 5 3.460294 2.518332 13.400000
23918 5 3.877010 1.812300 13.400000
23919 5 4.669548 4.660038 13.400000
23920 5 5.086263 3.954006 13.400000
23921 5 5.878801 6.801745 13.400000
23922 5 6.295516 6.095713 13.400000
23923 5 7.088054 8.943451 13.400000
23924 5 7.504769 8.237419 13.400000
23925 5 8.297307 11.085158 13.400000
23926 5 8.714022 10.379126 13.400000
23927 5 9.506560 13.226864 13.400000
23928 5 9.923276 12.520832 13.400000
23929 5 10.715814 15.368571 13.400000
23930 5 11.132529 14.662539 13.400000
23931 5 11.925067 17.510277 13.400000
23932 5 12.341782 16.804245 13.400000
23933 5 13.134320 19.651984 13.400000
23934 5 13.551035 18.945951 13.400000
23935 5 14.343573 21.793690 13.400000
23936 5 14.760288 21.087658 13.400000
23937 5 15.552826 23.935397 13.400000
23938 5 15.969542 23.229364 13.400000
23939 5 16.762080 26.077103 13.400000
23940 5 17.178795 25.371071 13.400000
23941 5 17.971333 28.218810 13.400000
23942 5 18.388048 27.512777 13.400000
23943 5 19.180586 30.360516 13.400000
23944 5 19.597301 29.654484 13.400000
23945 5 20.389839 32.502223 13.400000
23946 5 20.806554 31.796190 13.400000
23947 5 21.599092 34.643929 13.400000
23948 5 22.015808 33.937897 13.400000
23949 5 22.808346 36.785636 13.400000
23950 5 23.225061 36.079603 13.400000
23951 5 24.017599 38.927342 13.400000
23952 5 24.434314 38.221310 13.400000
23953 5 25.226852 41.069049 13.400000
23954 5 25.643567 40.363016 13.400000
23955 5 26.436105 43.210755 13.400000
23956 5 26.852820 42.504723 13.400000
23957 5 27.645358 45.352462 13.400000
23958 5 28.062074 44.646429 13.400000
23959 5 28.854612 47.494168 13.400000
23960 5 29.271327 46.788136 13.400000
23961 5 30.063865 49.635875 13.400000
23962 5 30.480580 48.929842 13.400000
23963 5 31.273118 51.777581 13.400000
23964 5 31.689833 51.071549 13.400000
23965 5 32.482371 53.919288 13.400000
23966 5 32.899086 53.213255 13.400000
23967 5 33.691624 56.060994 13.400000
23968 5 34.108340 55.354962 13.400000
23969 5 34.900878 58.202701 13.400000
23970 5 35.317593 57.496668 13.400000
23971 5 -27.939396 -57.425841 13.400000
23972 5 -27.522681 -58.131873 13.400000
23973 5 -26.730143 -55.284134 13.400000
23974 5 -26.313428 -55.990167 13.400000
23975 5 -25.520890 -53.142428 13.400000
23976 5 -25.104175 -53.848460 13.400000
23977 5 -24.311637 -51.000721 13.400000
23978 5 -23.894921 -51.706754 13.400000
23979 5 -23.102383 -48.859015 13.400000
23980 5 -22.685668 -49.565047 13.400000
23981 5 -21.893130 -46.717308 13.400000
23982 5 -21.476415 -47.423341 13.400000
23983 5 -20.683877 -44.575602 13.400000
23984 5 -20.267162 -45.281634 13.400000
23985 5 -19.474624 -42.433895 13.400000
23986 5 -19.057909 -43.139928 13.400000
23987 5 -18.265371 -40.292189 13.400000
23988 5 -17.848655 -40.998221 13.400000
23989 5 -17.056117 -38.150482 13.400000
23990 5 -16.639402 -38.856515 13.400000
23991 5 -15.846864 -36.008776 13.400000
23992 5 -15.430149 -36.714808 13.400000
23993 5 -14.637611 -33.867069 13.400000
23994 5 -14.220896 -34.573102 13.400000
23995 5 -13.428358 -31.725363 13.400000
23996 5 -13.011643 -32.431395 13.400000
23997 5 -12.219105 -29.583656 13.400000
23998 5 -11.802389 -30.289689 13.400000
23999 5 -11.009852 -27.441950 13.400000
24000 5 -10.593136 -28.147982 13.400000
24001 5 -9.800598 -25.300243 13.400000
24002 5 -9.383883 -26.006276 13.400000
24003 5 -8.591345 -23.158537 13.400000
24004 5 -8.174630 -23.864569 13.400000
24005 5 -7.382092 -21.016830 13.400000
24006 5 -6.965377 -21.722863 13.400000
24007 5 -6.172839 -18.875124 13.400000
24008 5 -5.756124 -19.581156 13.400000
24009 5 -4.963586 -16.733417 13.400000
24010 5 -4.546870 -17.439450 13.400000
24011 5 -3.754332 -14.591711 13.400000
24012 5 -3.337617 -15.297743 13.400000
24013 5 -2.545079 -12.450004 13.400000
24014 5 -2.128364 -13.156037 13.400000
24015 5 -1.335826 -10.308298 13.400000
24016 5 -0.919111 -11.014330 13.400000
24017 5 -0.126573 -8.166591 13.400000
24018 5 0.290142 -8.872624 13.400000
24019 5 1.082680 -6.024885 13.400000
24020 5 1.499396 -6.730917 13.400000
24021 5 2.291934 -3.883178 13.400000
24022 5 2.708649 -4.589211 13.400000
24023 5 3.501187 -1.741472 13.400000
24024 5 3.917902 -2.447504 13.400000
24025 5 4.710440 0.400235 13.400000
24026 5 5.127155 -0.305798 13.400000
24027 5 5.919693 2.541941 13.400000
24028 5 6.336408 1.835909 13.400000
24029 5 7.128946 4.683648 13.400000
24030 5 7.545662 3.977615 13.400000
24031 5 8.338200 6.825354 13.400000
24032 5 8.754915 6.119322 13.400000
24033 5 9.547453 8.967061 13.400000
24034 5 9.964168 8.261028 13.400000
24035 5 10.756706 11.108767 13.400000
24036 5 11.173421 10.402735 13.400000
24037 5 11.965959 13.250474 13.400000
24038 5 12.382674 12.544441 13.400000
24039 5 13.175212 15.392180 13.400000
24040 5 13.591928 14.686148 13.400000
24041 5 14.384466 17.533887 13.400000
24042 5 14.801181 16.827854 13.400000
24043 5 15.593719 19.675593 13.400000
24044 5 16.010434 18.969561 13.400000
24045 5 16.802972 21.817300 13.400000
24046 5 17.219687 21.111267 13.400000
24047 5 18.012225 23.959006 13.400000
24048 5 18.428940 23.252974 13.400000
24049 5 19.221478 26.100713 13.400000
24050 5 19.638194 25.394680 13.400000
24051 5 20.430732 28.242419 13.400000
24052 5 20.847447 27.536387 13.400000
24053 5 21.639985 30.384126 13.400000
24054 5 22.056700 29.678093 13.400000
24055 5 22.849238 32.525832 13.400000
24056 5 23.265953 31.819800 13.400000
24057 5 24.058491 34.667539 13.400000
24058 5 24.475206 33.961506 13.400000
24059 5 25.267744 36.809245 13.400000
24060 5 25.684460 36.103213 13.400000
24061 5 26.476998 38.950952 13.400000
24062 5 26.893713 38.244919 13.400000
24063 5 27.686251 41.092658 13.400000
24064 5 28.102966 40.386626 13.400000
24065 5 28.895504 43.234365 13.400000
24066 5 29.312219 42.528332 13.400000
24067 5 30.104757 45.376071 13.400000
24068 5 30.521472 44.670039 13.400000
24069 5 31.314010 47.517778 13.400000
24070 5 31.730726 46.811745 13.400000
24071 5 32.523264 49.659484 13.400000
24072 5 32.939979 48.953452 13.400000
24073 5 33.732517 51.801191 13.400000
24074 5 34.149232 51.095158 13.400000
24075 5 34.941770 53.942897 13.400000
24076 5 35.358485 53.236865 13.400000
24077 5 36.151023 56.084604 13.400000
24078 5 36.567738 55.378571 13.400000
24079 5 37.360276 58.226310 13.400000
24080 5 37.776992 57.520278 13.400000
24081 5 -25.479997 -57.402231 13.400000
24082 5 -25.063282 -58.108264 13.400000
24083 5 -24.270744 -55.260525 13.400000
24084 5 -23.854029 -55.966557 13.400000
24085 5 -23.061491 -53.118818 13.400000
24086 5 -22.644776 -53.824851 13.400000
24087 5 -21.852238 -50.977112 13.400000
24088 5 -21.435523 -51.683144 13.400000
24089 5 -20.642985 -48.835405 13.400000
24090 5 -20.226269 -49.541438 13.400000
24091 5 -19.433731 -46.693699 13.400000
24092 5 -19.017016 -47.399731 13.400000
24093 5 -18.224478 -44.551992 13.400000
24094 5 -17.807763 -45.258025 13.400000
24095 5 -17.015225 -42.410286 13.400000
24096 5 -16.598510 -43.116318 13.400000
24097 5 -15.805972 -40.268579 13.400000
24098 5 -15.389257 -40.974612 13.400000
24099 5 -14.596719 -38.126873 13.400000
24100 5 -14.180003 -38.832905 13.400000
24101 5 -13.387465 -35.985166 13.400000
24102 5 -12.970750 -36.691199 13.400000
24103 5 -12.178212 -33.843460 13.400000
24104 5 -11.761497 -34.549492 13.400000
24105 5 -10.968959 -31.701753 13.400000
24106 5 -10.552244 -32.407786 13.400000
24107 5 -9.759706 -29.560047 13.400000
24108 5 -9.342991 -30.266079 13.400000
24109 5 -8.550453 -27.418340 13.400000
24110 5 -8.133737 -28.124373 13.400000
24111 5 -7.341199 -25.276634 13.400000
24112 5 -6.924484 -25.982666 13.400000
24113 5 -6.131946 -23.134927 13.400000
24114 5 -5.715231 -23.840960 13.400000
24115 5 -4.922693 -20.993221 13.400000
24116 5 -4.505978 -21.699253 13.400000
24117 5 -3.713440 -18.851514 13.400000
24118 5 -3.296725 -19.557547 13.400000
24119 5 -2.504187 -16.709808 13.400000
24120 5 -2.087471 -17.415840 13.400000
24121 5 -1.294933 -14.568101 13.400000
24122 5 -0.878218 -15.274134 13.400000
24123 5 -0.085680 -12.426395 13.400000
24124 5 0.331035 -13.132427 13.400000
24125 5 1.123573 -10.284688 13.400000
24126 5 1.540288 -10.990721 13.400000
24127 5 2.332826 -8.142982 13.400000
24128 5 2.749541 -8.849014 13.400000
24129 5 3.542079 -6.001275 13.400000
24130 5 3.958795 -6.707308 13.400000
24131 5 4.751332 -3.859569 13.400000
24132 5 5.168048 -4.565601 13.400000
24133 5 5.960586 -1.717863 13.400000
24134 5 6.377301 -2.423895 13.400000
24135 5 7.169839 0.423844 13.400000
24136 5 7.586554 -0.282188 13.400000
24137 5 8.379092 2.565550 13.400000
24138 5 8.795807 1.859518 13.400000
24139 5 9.588345 4.707257 13.400000
24140 5 10.005060 4.001225 13.400000
24141 5 10.797598 6.848963 13.400000
24142 5 11.214314 6.142931 13.400000
24143 5 12.006852 8.990670 13.400000
24144 5 12.423567 8.284638 13.400000
24145 5 13.216105 11.132376 13.400000
24146 5 13.632820 10.426344 13.400000
24147 5 14.425358 13.274083 13.400000
24148 5 14.842073 12.568051 13.400000
24149 5 15.634611 15.415789 13.400000
24150 5 16.051326 14.709757 13.400000
24151 5 16.843864 17.557496 13.400000
24152 5 17.260580 16.851464 13.400000
24153 5 18.053118 19.699202 13.400000
24154 5 18.469833 18.993170 13.400000
24155 5 19.262371 21.840909 13.400000
24156 5 19.679086 21.134877 13.400000
24157 5 20.471624 23.982615 13.400000
24158 5 20.888339 23.276583 13.400000
24159 5 21.680877 26.124322 13.400000
24160 5 22.097592 25.418289 13.400000
24161 5 22.890130 28.266028 13.400000
24162 5 23.306846 27.559996 13.400000
24163 5 24.099384 30.407735 13.400000
24164 5 24.516099 29.701702 13.400000
24165 5 25.308637 32.549441 13.400000
24166 5 25.725352 31.843409 13.400000
24167 5 26.517890 34.691148 13.400000
24168 5 26.934605 33.985115 13.400000
24169 5 27.727143 36.832854 13.400000
24170 5 28.143858 36.126822 13.400000
24171 5 28.936396 38.974561 13.400000
24172 5 29.353112 38.268528 13.400000
24173 5 30.145650 41.116267 13.400000
24174 5 30.562365 40.410235 13.400000
24175 5 31.354903 43.257974 13.400000
24176 5 31.771618 42.551941 13.400000
24177 5 32.564156 45.399680 13.400000
24178 5 32.980871 44.693648 13.400000
24179 5 33.773409 47.541387 13.400000
24180 5 34.190124 46.835354 13.400000
24181 5 34.982662 49.683093 13.400000
24182 5 35.399378 48.977061 13.400000
24183 5 36.191916 51.824800 13.400000
24184 5 36.608631 51.118767 13.400000
24185 5 37.401169 53.966506 13.400000
24186 5 37.817884 53.260474 13.400000
24187 5 38.610422 56.108213 13.400000
24188 5 39.027137 55.402180 13.400000
24189 5 39.819675 58.249919 13.400000
24190 5 40.236390 57.543887 13.400000
24191 5 -23.020599 -57.378622 13.400000
24192 5 -22.603883 -58.084655 13.400000
24193 5 -21.811345 -55.236916 13.400000
24194 5 -21.394630 -55.942948 13.400000
24195 5 -20.602092 -53.095209 13.400000
24196 5 -20.185377 -53.801242 13.400000
24197 5 -19.392839 -50.953503 13.400000
24198 5 -18.976124 -51.659535 13.400000
24199 5 -18.183586 -48.811796 13.400000
24200 5 -17.766871 -49.517829 13.400000
24201 5 -16.974333 -46.670090 13.400000
24202 5 -16.557617 -47.376122 13.400000
24203 5 -15.765079 -44.528383 13.400000
24204 5 -15.348364 -45.234416 13.400000
24205 5 -14.555826 -42.386677 13.400000
24206 5 -14.139111 -43.092709 13.400000
24207 5 -13.346573 -40.244970 13.400000
24208 5 -12.929858 -40.951003 13.400000
24209 5 -12.137320 -38.103264 13.400000
24210 5 -11.720605 -38.809296 13.400000
24211 5 -10.928067 -35.961557 13.400000
24212 5 -10.511351 -36.667590 13.400000
24213 5 -9.718813 -33.819851 13.400000
24214 5 -9.302098 -34.525883 13.400000
24215 5 -8.509560 -31.678144 13.400000
24216 5 -8.092845 -32.384177 13.400000
24217 5 -7.300307 -29.536438 13.400000
24218 5 -6.883592 -30.242470 13.400000
24219 5 -6.091054 -27.394731 13.400000
24220 5 -5.674339 -28.100764 13.400000
24221 5 -4.881801 -25.253025 13.400000
24222 5 -4.465085 -25.959057 13.400000
24223 5 -3.672547 -23.111318 13.400000
24224 5 -3.255832 -23.817351 13.400000
24225 5 -2.463294 -20.969612 13.400000
24226 5 -2.046579 -21.675644 13.400000
24227 5 -1.254041 -18.827905 13.400000
24228 5 -0.837326 -19.533938 13.400000
24229 5 -0.044788 -16.686199 13.400000
24230 5 0.371927 -17.392231 13.400000
24231 5 1.164465 -14.544492 13.400000
24232 5 1.581181 -15.250525 13.400000
24233 5 2.373719 -12.402786 13.400000
24234 5 2.790434 -13.108818 13.400000
24235 5 3.582972 -10.261079 13.400000
24236 5 3.999687 -10.967112 13.400000
24237 5 4.792225 -8.119373 13.400000
24238 5 5.208940 -8.825405 13.400000
24239 5 6.001478 -5.977666 13.400000
24240 5 6.418193 -6.683699 13.400000
24241 5 7.210731 -3.835960 13.400000
24242 5 7.627447 -4.541992 13.400000
24243 5 8.419985 -1.694253 13.400000
24244 5 8.836700 -2.400286 13.400000
24245 5 9.629238 0.447453 13.400000
24246 5 10.045953 -0.258579 13.400000
24247 5 10.838491 2.589160 13.400000
24248 5 11.255206 1.883127 13.400000
24249 5 12.047744 4.730866 13.400000
24250 5 12.464459 4.024834 13.400000
24251 5 13.256997 6.872573 13.400000
24252 5 13.673713 6.166540 13.400000
24253 5 14.466250 9.014279 13.400000
24254 5 14.882966 8.308247 13.400000
24255 5 15.675504 11.155986 13.400000
24256 5 16.092219 10.449953 13.400000
24257 5 16.884757 13.297692 13.400000
24258 5 17.301472 12.591660 13.400000
24259 5 18.094010 15.439399 13.400000
24260 5 18.510725 14.733366 13.400000
24261 5 19.303263 17.581105 13.400000
24262 5 19.719978 16.875073 13.400000
24263 5 20.512516 19.722812 13.400000
24264 5 20.929232 19.016779 13.400000
24265 5 21.721770 21.864518 13.400000
24266 5 22.138485 21.158486 13.400000
24267 5 22.931023 24.006225 13.400000
24268 5 23.347738 23.300192 13.400000
24269 5 24.140276 26.147931 13.400000
24270 5 24.556991 25.441899 13.400000
24271 5 25.349529 28.289638 13.400000
24272 5 25.766244 27.583605 13.400000
24273 5 26.558782 30.431344 13.400000
24274 5 26.975498 29.725312 13.400000
24275 5 27.768036 32.573051 13.400000
24276 5 28.184751 31.867018 13.400000
24277 5 28.977289 34.714757 13.400000
24278 5 29.394004 34.008725 13.400000
24279 5 30.186542 36.856464 13.400000
24280 5 30.603257 36.150431 13.400000
24281 5 31.395795 38.998170 13.400000
24282 5 31.812510 38.292138 13.400000
24283 5 32.605048 41.139877 13.400000
24284 5 33.021764 40.433844 13.400000
24285 5 33.814302 43.281583 13.400000
24286 5 34.231017 42.575551 13.400000
24287 5 35.023555 45.423290 13.400000
24288 5 35.440270 44.717257 13.400000
24289 5 36.232808 47.564996 13.400000
24290 5 36.649523 46.858964 13.400000
24291 5 37.442061 49.706703 13.400000
24292 5 37.858776 49.000670 13.400000
24293 5 38.651314 51.848409 13.400000
24294 5 39.068030 51.142377 13.400000
24295 5 39.860568 53.990116 13.400000
24296 5 40.277283 53.284083 13.400000
24297 5 41.069821 56.131822 13.400000
24298 5 41.486536 55.425790 13.400000
24299 5 42.279074 58.273529 13.400000
24300 5 42.695789 57.567496 13.400000
24301 5 -20.561200 -57.355013 13.400000
24302 5 -20.144485 -58.061045 13.400000
24303 5 -19.351947 -55.213306 13.400000
24304 5 -18.935231 -55.919339 13.400000
24305 5 -18.142693 -53.071600 13.400000
24306 5 -17.725978 -53.777632 13.400000
24307 5 -16.933440 -50.929893 13.400000
24308 5 -16.516725 -51.635926 13.400000
24309 5 -15.724187 -48.788187 13.400000
24310 5 -15.307472 -49.494219 13.400000
24311 5 -14.514934 -46.646480 13.400000
24312 5 -14.098219 -47.352513 13.400000
24313 5 -13.305681 -44.504774 13.400000
24314 5 -12.888965 -45.210806 13.400000
24315 5 -12.096427 -42.363067 13.400000
24316 5 -11.679712 -43.069100 13.400000
24317 5 -10.887174 -40.221361 13.400000
24318 5 -10.470459 -40.927393 13.400000
24319 5 -9.677921 -38.079654 13.400000
24320 5 -9.261206 -38.785687 13.400000
24321 5 -8.468668 -35.937948 13.400000
24322 5 -8.051953 -36.643980 13.400000
24323 5 -7.259415 -33.796241 13.400000
24324 5 -6.842699 -34.502274 13.400000
24325 5 -6.050161 -31.654535 13.400000
24326 5 -5.633446 -32.360567 13.400000
24327 5 -4.840908 -29.512828 13.400000
24328 5 -4.424193 -30.218861 13.400000
24329 5 -3.631655 -27.371122 13.400000
24330 5 -3.214940 -28.077154 13.400000
24331 5 -2.422402 -25.229415 13.400000
24332 5 -2.005687 -25.935448 13.400000
24333 5 -1.213149 -23.087709 13.400000
24334 5 -0.796433 -23.793741 13.400000
24335 5 -0.003895 -20.946002 13.400000
24336 5 0.412820 -21.652035 13.400000
24337 5 1.205358 -18.804296 13.400000
24338 5 1.622073 -19.510328 13.400000
24339 5 2.414611 -16.662589 13.400000
24340 5 2.831326 -17.368622 13.400000
24341 5 3.623864 -14.520883 13.400000
24342 5 4.040579 -15.226915 13.400000
24343 5 4.833117 -12.379176 13.400000
24344 5 5.249833 -13.085209 13.400000
24345 5 6.042371 -10.237470 13.400000
24346 5 6.459086 -10.943502 13.400000
24347 5 7.251624 -8.095763 13.400000
24348 5 7.668339 -8.801796 13.400000
24349 5 8.460877 -5.954057 13.400000
24350 5 8.877592 -6.660089 13.400000
24351 5 9.670130 -3.812350 13.400000
24352 5 10.086845 -4.518383 13.400000
24353 5 10.879383 -1.670644 13.400000
24354 5 11.296099 -2.376676 13.400000
24355 5 12.088637 0.471063 13.400000
24356 5 12.505352 -0.234970 13.400000
24357 5 13.297890 2.612769 13.400000
24358 5 13.714605 1.906737 13.400000
24359 5 14.507143 4.754475 13.400000
24360 5 14.923858 4.048443 13.400000
24361 5 15.716396 6.896182 13.400000
24362 5 16.133111 6.190150 13.400000
24363 5 16.925649 9.037888 13.400000
24364 5 17.342365 8.331856 13.400000
24365 5 18.134903 11.179595 13.400000
24366 5 18.551618 10.473563 13.400000
24367 5 19.344156 13.321301 13.400000
24368 5 19.760871 12.615269 13.400000
24369 5 20.553409 15.463008 13.400000
24370 5 20.970124 14.756976 13.400000
24371 5 21.762662 17.604714 13.400000
24372 5 22.179377 16.898682 13.400000
24373 5 22.971915 19.746421 13.400000
24374 5 23.388631 19.040389 13.400000
24375 5 24.181169 21.888127 13.400000
24376 5 24.597884 21.182095 13.400000
24377 5 25.390422 24.029834 13.400000
24378 5 25.807137 23.323802 13.400000
24379 5 26.599675 26.171540 13.400000
24380 5 27.016390 25.465508 13.400000
24381 5 27.808928 28.313247 13.400000
24382 5 28.225643 27.607215 13.400000
24383 5 29.018181 30.454953 13.400000
24384 5 29.434897 29.748921 13.400000
24385 5 30.227434 32.596660 13.400000
24386 5 30.644150 31.890628 13.400000
24387 5 31.436688 34.738366 13.400000
24388 5 31.853403 34.032334 13.400000
24389 5 32.645941 36.880073 13.400000
24390 5 33.062656 36.174040 13.400000
24391 5 33.855194 39.021779 13.400000
24392 5 34.271909 38.315747 13.400000
24393 5 35.064447 41.163486 13.400000
24394 5 35.481162 40.457453 13.400000
24395 5 36.273700 43.305192 13.400000
24396 5 36.690416 42.599160 13.400000
24397 5 37.482954 45.446899 13.400000
24398 5 37.899669 44.740866 13.400000
24399 5 38.692207 47.588605 13.400000
24400 5 39.108922 46.882573 13.400000
24401 5 39.901460 49.730312 13.400000
24402 5 40.318175 49.024279 13.400000
24403 5 41.110713 51.872018 13.400000
24404 5 41.527428 51.165986 13.400000
24405 5 42.319966 54.013725 13.400000
24406 5 42.736682 53.307692 13.400000
24407 5 43.529220 56.155431 13.400000
24408 5 43.945935 55.449399 13.400000
24409 5 44.738473 58.297138 13.400000
24410 5 45.155188 57.591105 13.400000
24411 5 -18.101801 -57.331404 13.400000
24412 5 -17.685086 -58.037436 13.400000
24413 5 -16.892548 -55.189697 13.400000
24414 5 -16.475833 -55.895729 13.400000
24415 5 -15.683295 -53.047991 13.400000
24416 5 -15.266579 -53.754023 13.400000
24417 5 -14.474041 -50.906284 13.400000
24418 5 -14.057326 -51.612317 13.400000
24419 5 -13.264788 -48.764578 13.400000
24420 5 -12.848073 -49.470610 13.400000
24421 5 -12.055535 -46.622871 13.400000
24422 5 -11.638820 -47.328904 13.400000
24423 5 -10.846282 -44.481165 13.400000
24424 5 -10.429567 -45.187197 13.400000
24425 5 -9.637029 -42.339458 13.400000
24426 5 -9.220313 -43.045491 13.400000
24427 5 -8.427775 -40.197752 13.400000
24428 5 -8.011060 -40.903784 13.400000
24429 5 -7.218522 -38.056045 13.400000
24430 5 -6.801807 -38.762078 13.400000
24431 5 -6.009269 -35.914339 13.400000
24432 5 -5.592554 -36.620371 13.400000
24433 5 -4.800016 -33.772632 13.400000
24434 5 -4.383301 -34.478665 13.400000
24435 5 -3.590763 -31.630926 13.400000
24436 5 -3.174047 -32.336958 13.400000
24437 5 -2.381509 -29.489219 13.400000
24438 5 -1.964794 -30.195252 13.400000
24439 5 -1.172256 -27.347513 13.400000
24440 5 -0.755541 -28.053545 13.400000
24441 5 0.036997 -25.205806 13.400000
24442 5 0.453712 -25.911839 13.400000
24443 5 1.246250 -23.064100 13.400000
24444 5 1.662965 -23.770132 13.400000
24445 5 2.455503 -20.922393 13.400000
24446 5 2.872219 -21.628426 13.400000
24447 5 3.664757 -18.780687 13.400000
24448 5 4.081472 -19.486719 13.400000
24449 5 4.874010 -16.638980 13.400000
24450 5 5.290725 -17.345013 13.400000
24451 5 6.083263 -14.497274 13.400000
24452 5 6.499978 -15.203306 13.400000
24453 5 7.292516 -12.355567 13.400000
24454 5 7.709231 -13.061600 13.400000
24455 5 8.501769 -10.213861 13.400000
24456 5 8.918485 -10.919893 13.400000
24457 5 9.711023 -8.072154 13.400000
24458 5 10.127738 -8.778187 13.400000
24459 5 10.920276 -5.930448 13.400000
24460 5 11.336991 -6.636480 13.400000
24461 5 12.129529 -3.788741 13.400000
24462 5 12.546244 -4.494774 13.400000
24463 5 13.338782 -1.647035 13.400000
24464 5 13.755497 -2.353067 13.400000
24465 5 14.548035 0.494672 13.400000
24466 5 14.964751 -0.211361 13.400000
24467 5 15.757289 2.636378 13.400000
24468 5 16.174004 1.930346 13.400000
24469 5 16.966542 4.778085 13.400000
24470 5 17.383257 4.072052 13.400000
24471 5 18.175795 6.919791 13.400000
24472 5 18.592510 6.213759 13.400000
24473 5 19.385048 9.061498 13.400000
24474 5 19.801763 8.355465 13.400000
24475 5 20.594301 11.203204 13.400000
24476 5 21.011017 10.497172 13.400000
24477 5 21.803555 13.344911 13.400000
24478 5 22.220270 12.638878 13.400000
24479 5 23.012808 15.486617 13.400000
24480 5 23.429523 14.780585 13.400000
24481 5 24.222061 17.628324 13.400000
24482 5 24.638776 16.922291 13.400000
24483 5 25.431314 19.770030 13.400000
24484 5 25.848029 19.063998 13.400000
24485 5 26.640567 21.911737 13.400000
24486 5 27.057283 21.205704 13.400000
24487 5 27.849821 24.053443 13.400000
24488 5 28.266536 23.347411 13.400000
24489 5 29.059074 26.195150 13.400000
24490 5 29.475789 25.489117 13.400000
24491 5 30.268327 28.336856 13.400000
24492 5 30.685042 27.630824 13.400000
24493 5 31.477580 30.478563 13.400000
24494 5 31.894295 29.772530 13.400000
24495 5 32.686833 32.620269 13.400000
24496 5 33.103549 31.914237 13.400000
24497 5 33.896087 34.761976 13.400000
24498 5 34.312802 34.055943 13.400000
24499 5 35.105340 36.903682 13.400000
24500 5 35.522055 36.197650 13.400000
24501 5 36.314593 39.045389 13.400000
24502 5 36.731308 38.339356 13.400000
24503 5 37.523846 41.187095 13.400000
24504 5 37.940561 40.481063 13.400000
24505 5 38.733099 43.328802 13.400000
24506 5 39.149815 42.622769 13.400000
24507 5 39.942353 45.470508 13.400000
24508 5 40.359068 44.764476 13.400000
24509 5 41.151606 47.612215 13.400000
24510 5 41.568321 46.906182 13.400000
24511 5 42.360859 49.753921 13.400000
24512 5 42.777574 49.047889 13.400000
24513 5 43.570112 51.895628 13.400000
24514 5 43.986827 51.189595 13.400000
24515 5 44.779365 54.037334 13.400000
24516 5 45.196080 53.331302 13.400000
24517 5 45.988618 56.179041 13.400000
24518 5 46.405334 55.473008 13.400000
24519 5 47.197872 58.320747 13.400000
24520 5 47.614587 57.614715 13.400000
24521 5 -15.642402 -57.307794 13.400000
24522 5 -15.225687 -58.013827 13.400000
24523 5 -14.433149 -55.166088 13.400000
24524 5 -14.016434 -55.872120 13.400000
24525 5 -13.223896 -53.024381 13.400000
24526 5 -12.807181 -53.730414 13.400000
24527 5 -12.014643 -50.882675 13.400000
24528 5 -11.597927 -51.588707 13.400000
24529 5 -10.805389 -48.740968 13.400000
24530 5 -10.388674 -49.447001 13.400000
24531 5 -9.596136 -46.599262 13.400000
24532 5 -9.179421 -47.305294 13.400000
24533 5 -8.386883 -44.457555 13.400000
24534 5 -7.970168 -45.163588 13.400000
24535 5 -7.177630 -42.315849 13.400000
24536 5 -6.760915 -43.021881 13.400000
24537 5 -5.968377 -40.174142 13.400000
24538 5 -5.551661 -40.880175 13.400000
24539 5 -4.759123 -38.032436 13.400000
24540 5 -4.342408 -38.738468 13.400000
24541 5 -3.549870 -35.890729 13.400000
24542 5 -3.133155 -36.596762 13.400000
24543 5 -2.340617 -33.749023 13.400000
24544 5 -1.923902 -34.455055 13.400000
24545 5 -1.131364 -31.607316 13.400000
24546 5 -0.714649 -32.313349 13.400000
24547 5 0.077889 -29.465610 13.400000
24548 5 0.494605 -30.171642 13.400000
24549 5 1.287143 -27.323903 13.400000
24550 5 1.703858 -28.029936 13.400000
24551 5 2.496396 -25.182197 13.400000
24552 5 2.913111 -25.888229 13.400000
24553 5 3.705649 -23.040490 13.400000
24554 5 4.122364 -23.746523 13.400000
24555 5 4.914902 -20.898784 13.400000
24556 5 5.331617 -21.604816 13.400000
24557 5 6.124155 -18.757077 13.400000
24558 5 6.540871 -19.463110 13.400000
24559 5 7.333409 -16.615371 13.400000
24560 5 7.750124 -17.321403 13.400000
24561 5 8.542662 -14.473664 13.400000
24562 5 8.959377 -15.179697 13.400000
24563 5 9.751915 -12.331958 13.400000
24564 5 10.168630 -13.037990 13.400000
24565 5 10.961168 -10.190251 13.400000
24566 5 11.377883 -10.896284 13.400000
24567 5 12.170421 -8.048545 13.400000
24568 5 12.587137 -8.754577 13.400000
24569 5 13.379675 -5.906838 13.400000
24570 5 13.796390 -6.612871 13.400000
24571 5 14.588928 -3.765132 13.400000
24572 5 15.005643 -4.471164 13.400000
24573 5 15.798181 -1.623425 13.400000
24574 5 16.214896 -2.329458 13.400000
24575 5 17.007434 0.518281 13.400000
24576 5 17.424149 -0.187751 13.400000
24577 5 18.216687 2.659988 13.400000
24578 5 18.633403 1.953955 13.400000
24579 5 19.425941 4.801694 13.400000
24580 5 19.842656 4.095662 13.400000
24581 5 20.635194 6.943401 13.400000
24582 5 21.051909 6.237368 13.400000
24583 5 21.844447 9.085107 13.400000
24584 5 22.261162 8.379075 13.400000
24585 5 23.053700 11.226813 13.400000
24586 5 23.470415 10.520781 13.400000
24587 5 24.262953 13.368520 13.400000
24588 5 24.679669 12.662488 13.400000
24589 5 25.472207 15.510226 13.400000
24590 5 25.888922 14.804194 13.400000
24591 5 26.681460 17.651933 13.400000
24592 5 27.098175 16.945901 13.400000
24593 5 27.890713 19.793639 13.400000
24594 5 28.307428 19.087607 13.400000
24595 5 29.099966 21.935346 13.400000
24596 5 29.516681 21.229314 13.400000
24597 5 30.309219 24.077052 13.400000
24598 5 30.725935 23.371020 13.400000
24599 5 31.518473 26.218759 13.400000
24600 5 31.935188 25.512727 13.400000
24601 5 32.727726 28.360465 13.400000
24602 5 33.144441 27.654433 13.400000
24603 5 33.936979 30.502172 13.400000
24604 5 34.353694 29.796140 13.400000
24605 5 35.146232 32.643878 13.400000
24606 5 35.562947 31.937846 13.400000
24607 5 36.355485 34.785585 13.400000
24608 5 36.772201 34.079553 13.400000
24609 5 37.564739 36.927291 13.400000
24610 5 37.981454 36.221259 13.400000
24611 5 38.773992 39.068998 13.400000
24612 5 39.190707 38.362966 13.400000
24613 5 39.983245 41.210704 13.400000
24614 5 40.399960 40.504672 13.400000
24615 5 41.192498 43.352411 13.400000
24616 5 41.609213 42.646378 13.400000
24617 5 42.401751 45.494117 13.400000
24618 5 42.818467 44.788085 13.400000
24619 5 43.611005 47.635824 13.400000
24620 5 44.027720 46.929791 13.400000
24621 5 44.820258 49.777530 13.400000
24622 5 45.236973 49.071498 13.400000
24623 5 46.029511 51.919237 13.400000
24624 5 46.446226 51.213204 13.400000
24625 5 47.238764 54.060943 13.400000
24626 5 47.655479 53.354911 13.400000
24627 5 48.448017 56.202650 13.400000
24628 5 48.864733 55.496617 13.400000
24629 5 49.657271 58.344356 13.400000
24630 5 50.073986 57.638324 13.400000
24631 5 -13.183003 -57.284185 13.400000
24632 5 -12.766288 -57.990217 13.400000
24633 5 -11.973750 -55.142479 13.400000
24634 5 -11.557035 -55.848511 13.400000
24635 5 -10.764497 -53.000772 13.400000
24636 5 -10.347782 -53.706804 13.400000
24637 5 -9.555244 -50.859066 13.400000
24638 5 -9.138528 -51.565098 13.400000
24639 5 -8.345990 -48.717359 13.400000
24640 5 -7.929275 -49.423391 13.400000
24641 5 -7.136737 -46.575653 13.400000
24642 5 -6.720022 -47.281685 13.400000
24643 5 -5.927484 -44.433946 13.400000
24644 5 -5.510769 -45.139979 13.400000
24645 5 -4.718231 -42.292240 13.400000
24646 5 -4.301516 -42.998272 13.400000
24647 5 -3.508978 -40.150533 13.400000
24648 5 -3.092262 -40.856566 13.400000
24649 5 -2.299725 -38.008827 13.400000
24650 5 -1.883009 -38.714859 13.400000
24651 5 -1.090471 -35.867120 13.400000
24652 5 -0.673756 -36.573153 13.400000
24653 5 0.118782 -33.725414 13.400000
24654 5 0.535497 -34.431446 13.400000
24655 5 1.328035 -31.583707 13.400000
24656 5 1.744750 -32.289740 13.400000
24657 5 2.537288 -29.442001 13.400000
24658 5 2.954003 -30.148033 13.400000
24659 5 3.746541 -27.300294 13.400000
24660 5 4.163257 -28.006327 13.400000
24661 5 4.955795 -25.158588 13.400000
24662 5 5.372510 -25.864620 13.400000
24663 5 6.165048 -23.016881 13.400000
24664 5 6.581763 -23.722914 13.400000
24665 5 7.374301 -20.875175 13.400000
24666 5 7.791016 -21.581207 13.400000
24667 5 8.583554 -18.733468 13.400000
24668 5 9.000269 -19.439501 13.400000
24669 5 9.792807 -16.591762 13.400000
24670 5 10.209523 -17.297794 13.400000
24671 5 11.002061 -14.450055 13.400000
24672 5 11.418776 -15.156088 13.400000
24673 5 12.211314 -12.308349 13.400000
24674 5 12.628029 -13.014381 13.400000
24675 5 13.420567 -10.166642 13.400000
24676 5 13.837282 -10.872675 13.400000
24677 5 14.629820 -8.024936 13.400000
24678 5 15.046535 -8.730968 13.400000
24679 5 15.839073 -5.883229 13.400000
24680 5 16.255789 -6.589262 13.400000
24681 5 17.048327 -3.741523 13.400000
24682 5 17.465042 -4.447555 13.400000
24683 5 18.257580 -1.599816 13.400000
24684 5 18.674295 -2.305849 13.400000
24685 5 19.466833 0.541890 13.400000
24686 5 19.883548 -0.164142 13.400000
24687 5 20.676086 2.683597 13.400000
24688 5 21.092801 1.977564 13.400000
24689 5 21.885339 4.825303 13.400000
24690 5 22.302055 4.119271 13.400000
24691 5 23.094593 6.967010 13.400000
24692 5 23.511308 6.260977 13.400000
24693 5 24.303846 9.108716 13.400000
24694 5 24.720561 8.402684 13.400000
24695 5 25.513099 11.250423 13.400000
24696 5 25.929814 10.544390 13.400000
24697 5 26.722352 13.392129 13.400000
24698 5 27.139067 12.686097 13.400000
24699 5 27.931605 15.533836 13.400000
24700 5 28.348321 14.827803 13.400000
24701 5 29.140859 17.675542 13.400000
24702 5 29.557574 16.969510 13.400000
24703 5 30.350112 19.817249 13.400000
24704 5 30.766827 19.111216 13.400000
24705 5 31.559365 21.958955 13.400000
24706 5 31.976080 21.252923 13.400000
24707 5 32.768618 24.100662 13.400000
24708 5 33.185333 23.394629 13.400000
24709 5 33.977871 26.242368 13.400000
24710 5 34.394587 25.536336 13.400000
24711 5 35.187125 28.384075 13.400000
24712 5 35.603840 27.678042 13.400000
24713 5 36.396378 30.525781 13.400000
24714 5 36.813093 29.819749 13.400000
24715 5 37.605631 32.667488 13.400000
24716 5 38.022346 31.961455 13.400000
24717 5 38.814884 34.809194 13.400000
24718 5 39.231599 34.103162 13.400000
24719 5 40.024137 36.950901 13.400000
24720 5 40.440853 36.244868 13.400000
24721 5 41.233391 39.092607 13.400000
24722 5 41.650106 38.386575 13.400000
24723 5 42.442644 41.234314 13.400000
24724 5 42.859359 40.528281 13.400000
24725 5 43.651897 43.376020 13.400000
24726 5 44.068612 42.669988 13.400000
24727 5 44.861150 45.517727 13.400000
24728 5 45.277865 44.811694 13.400000
24729 5 46.070403 47.659433 13.400000
24730 5 46.487119 46.953401 13.400000
24731 5 47.279657 49.801140 13.400000
24732 5 47.696372 49.095107 13.400000
24733 5 48.488910 51.942846 13.400000
24734 5 48.905625 51.236814 13.400000
24735 5 49.698163 54.084553 13.400000
24736 5 50.114878 53.378520 13.400000
24737 5 50.907416 56.226259 13.400000
24738 5 51.324131 55.520227 13.400000
24739 5 -10.723604 -57.260576 13.400000
24740 5 -10.306889 -57.966608 13.400000
24741 5 -9.514351 -55.118869 13.400000
24742 5 -9.097636 -55.824902 13.400000
24743 5 -8.305098 -52.977163 13.400000
24744 5 -7.888383 -53.683195 13.400000
24745 5 -7.095845 -50.835456 13.400000
24746 5 -6.679130 -51.541489 13.400000
24747 5 -5.886592 -48.693750 13.400000
24748 5 -5.469876 -49.399782 13.400000
24749 5 -4.677338 -46.552043 13.400000
24750 5 -4.260623 -47.258076 13.400000
24751 5 -3.468085 -44.410337 13.400000
24752 5 -3.051370 -45.116369 13.400000
24753 5 -2.258832 -42.268630 13.400000
24754 5 -1.842117 -42.974663 13.400000
24755 5 -1.049579 -40.126924 13.400000
24756 5 -0.632864 -40.832956 13.400000
24757 5 0.159674 -37.985217 13.400000
24758 5 0.576390 -38.691250 13.400000
24759 5 1.368928 -35.843511 13.400000
24760 5 1.785643 -36.549543 13.400000
24761 5 2.578181 -33.701804 13.400000
24762 5 2.994896 -34.407837 13.400000
24763 5 3.787434 -31.560098 13.400000
24764 5 4.204149 -32.266130 13.400000
24765 5 4.996687 -29.418391 13.400000
24766 5 5.413402 -30.124424 13.400000
24767 5 6.205940 -27.276685 13.400000
24768 5 6.622656 -27.982717 13.400000
24769 5 7.415194 -25.134978 13.400000
24770 5 7.831909 -25.841011 13.400000
24771 5 8.624447 -22.993272 13.400000
24772 5 9.041162 -23.699304 13.400000
24773 5 9.833700 -20.851565 13.400000
24774 5 10.250415 -21.557598 13.400000
24775 5 11.042953 -18.709859 13.400000
24776 5 11.459668 -19.415891 13.400000
24777 5 12.252206 -16.568152 13.400000
24778 5 12.668921 -17.274185 13.400000
24779 5 13.461459 -14.426446 13.400000
24780 5 13.878175 -15.132478 13.400000
24781 5 14.670713 -12.284739 13.400000
24782 5 15.087428 -12.990772 13.400000
24783 5 15.879966 -10.143033 13.400000
24784 5 16.296681 -10.849065 13.400000
24785 5 17.089219 -8.001326 13.400000
24786 5 17.505934 -8.707359 13.400000
24787 5 18.298472 -5.859620 13.400000
24788 5 18.715187 -6.565652 13.400000
24789 5 19.507725 -3.717913 13.400000
24790 5 19.924441 -4.423946 13.400000
24791 5 20.716979 -1.576207 13.400000
24792 5 21.133694 -2.282239 13.400000
24793 5 21.926232 0.565500 13.400000
24794 5 22.342947 -0.140533 13.400000
24795 5 23.135485 2.707206 13.400000
24796 5 23.552200 2.001174 13.400000
24797 5 24.344738 4.848913 13.400000
24798 5 24.761453 4.142880 13.400000
24799 5 25.553991 6.990619 13.400000
24800 5 25.970707 6.284587 13.400000
24801 5 26.763245 9.132326 13.400000
24802 5 27.179960 8.426293 13.400000
24803 5 27.972498 11.274032 13.400000
24804 5 28.389213 10.568000 13.400000
24805 5 29.181751 13.415739 13.400000
24806 5 29.598466 12.709706 13.400000
24807 5 30.391004 15.557445 13.400000
24808 5 30.807719 14.851413 13.400000
24809 5 31.600257 17.699151 13.400000
24810 5 32.016973 16.993119 13.400000
24811 5 32.809511 19.840858 13.400000
24812 5 33.226226 19.134826 13.400000
24813 5 34.018764 21.982564 13.400000
24814 5 34.435479 21.276532 13.400000
24815 5 35.228017 24.124271 13.400000
24816 5 35.644732 23.418239 13.400000
24817 5 36.437270 26.265977 13.400000
24818 5 36.853985 25.559945 13.400000
24819 5 37.646523 28.407684 13.400000
24820 5 38.063239 27.701652 13.400000
24821 5 38.855777 30.549390 13.400000
24822 5 39.272492 29.843358 13.400000
24823 5 40.065030 32.691097 13.400000
24824 5 40.481745 31.985065 13.400000
24825 5 41.274283 34.832803 13.400000
24826 5 41.690998 34.126771 13.400000
24827 5 42.483536 36.974510 13.400000
24828 5 42.900251 36.268478 13.400000
24829 5 43.692789 39.116216 13.400000
24830 5 44.109505 38.410184 13.400000
24831 5 44.902043 41.257923 13.400000
24832 5 45.318758 40.551891 13.400000
24833 5 46.111296 43.399629 13.400000
24834 5 46.528011 42.693597 13.400000
24835 5 47.320549 45.541336 13.400000
24836 5 47.737264 44.835304 13.400000
24837 5 48.529802 47.683042 13.400000
24838 5 48.946517 46.977010 13.400000
24839 5 49.739055 49.824749 13.400000
24840 5 50.155771 49.118716 13.400000
24841 5 50.948309 51.966455 13.400000
24842 5 51.365024 51.260423 13.400000
24843 5 52.157562 54.108162 13.400000
24844 5 52.574277 53.402129 13.400000
24845 5 -8.264206 -57.236967 13.400000
24846 5 -7.847490 -57.942999 13.400000
24847 5 -7.054952 -55.095260 13.400000
24848 5 -6.638237 -55.801292 13.400000
24849 5 -5.845699 -52.953554 13.400000
24850 5 -5.428984 -53.659586 13.400000
24851 5 -4.636446 -50.811847 13.400000
24852 5 -4.219731 -51.517879 13.400000
24853 5 -3.427193 -48.670141 13.400000
24854 5 -3.010478 -49.376173 13.400000
24855 5 -2.217940 -46.528434 13.400000
24856 5 -1.801224 -47.234466 13.400000
24857 5 -1.008686 -44.386728 13.400000
24858 5 -0.591971 -45.092760 13.400000
24859 5 0.200567 -42.245021 13.400000
24860 5 0.617282 -42.951053 13.400000
24861 5 1.409820 -40.103315 13.400000
24862 5 1.826535 -40.809347 13.400000
24863 5 2.619073 -37.961608 13.400000
24864 5 3.035788 -38.667641 13.400000
24865 5 3.828326 -35.819902 13.400000
24866 5 4.245042 -36.525934 13.400000
24867 5 5.037580 -33.678195 13.400000
24868 5 5.454295 -34.384228 13.400000
24869 5 6.246833 -31.536489 13.400000
24870 5 6.663548 -32.242521 13.400000
24871 5 7.456086 -29.394782 13.400000
24872 5 7.872801 -30.100815 13.400000
24873 5 8.665339 -27.253076 13.400000
24874 5 9.082054 -27.959108 13.400000
24875 5 9.874592 -25.111369 13.400000
24876 5 10.291308 -25.817402 13.400000
24877 5 11.083846 -22.969663 13.400000
24878 5 11.500561 -23.675695 13.400000
24879 5 12.293099 -20.827956 13.400000
24880 5 12.709814 -21.533989 13.400000
24881 5 13.502352 -18.686250 13.400000
24882 5 13.919067 -19.392282 13.400000
24883 5 14.711605 -16.544543 13.400000
24884 5 15.128320 -17.250576 13.400000
24885 5 15.920858 -14.402837 13.400000
24886 5 16.337574 -15.108869 13.400000
24887 5 17.130112 -12.261130 13.400000
24888 5 17.546827 -12.967163 13.400000
24889 5 18.339365 -10.119424 13.400000
24890 5 18.756080 -10.825456 13.400000
24891 5 19.548618 -7.977717 13.400000
24892 5 19.965333 -8.683750 13.400000
24893 5 20.757871 -5.836011 13.400000
24894 5 21.174586 -6.542043 13.400000
24895 5 21.967124 -3.694304 13.400000
24896 5 22.383840 -4.400337 13.400000
24897 5 23.176377 -1.552598 13.400000
24898 5 23.593093 -2.258630 13.400000
24899 5 24.385631 0.589109 13.400000
24900 5 24.802346 -0.116924 13.400000
24901 5 25.594884 2.730815 13.400000
24902 5 26.011599 2.024783 13.400000
24903 5 26.804137 4.872522 13.400000
24904 5 27.220852 4.166489 13.400000
24905 5 28.013390 7.014228 13.400000
24906 5 28.430105 6.308196 13.400000
24907 5 29.222643 9.155935 13.400000
24908 5 29.639359 8.449902 13.400000
24909 5 30.431897 11.297641 13.400000
24910 5 30.848612 10.591609 13.400000
24911 5 31.641150 13.439348 13.400000
24912 5 32.057865 12.733315 13.400000
24913 5 32.850403 15.581054 13.400000
24914 5 33.267118 14.875022 13.400000
24915 5 34.059656 17.722761 13.400000
24916 5 34.476371 17.016728 13.400000
24917 5 35.268909 19.864467 13.400000
24918 5 35.685625 19.158435 13.400000
24919 5 36.478163 22.006174 13.400000
24920 5 36.894878 21.300141 13.400000
24921 5 37.687416 24.147880 13.400000
24922 5 38.104131 23.441848 13.400000
24923 5 38.896669 26.289587 13.400000
24924 5 39.313384 25.583554 13.400000
24925 5 40.105922 28.431293 13.400000
24926 5 40.522637 27.725261 13.400000
24927 5 41.315175 30.573000 13.400000
24928 5 41.731891 29.866967 13.400000
24929 5 42.524429 32.714706 13.400000
24930 5 42.941144 32.008674 13.400000
24931 5 43.733682 34.856413 13.400000
24932 5 44.150397 34.150380 13.400000
24933 5 44.942935 36.998119 13.400000
24934 5 45.359650 36.292087 13.400000
24935 5 46.152188 39.139826 13.400000
24936 5 46.568903 38.433793 13.400000
24937 5 47.361441 41.281532 13.400000
24938 5 47.778157 40.575500 13.400000
24939 5 48.570695 43.423239 13.400000
24940 5 48.987410 42.717206 13.400000
24941 5 49.779948 45.564945 13.400000
24942 5 50.196663 44.858913 13.400000
24943 5 50.989201 47.706652 13.400000
24944 5 51.405916 47.000619 13.400000
24945 5 52.198454 49.848358 13.400000
24946 5 52.615169 49.142326 13.400000
24947 5 53.407707 51.990065 13.400000
24948 5 53.824423 51.284032 13.400000
24949 5 55.033676 53.425739 13.400000
24950 5 -5.804807 -57.213357 13.400000
24951 5 -5.388092 -57.919390 13.400000
24952 5 -4.595554 -55.071651 13.400000
24953 5 -4.178838 -55.777683 13.400000
24954 5 -3.386300 -52.929944 13.400000
24955 5 -2.969585 -53.635977 13.400000
24956 5 -2.177047 -50.788238 13.400000
24957 5 -1.760332 -51.494270 13.400000
24958 5 -0.967794 -48.646531 13.400000
24959 5 -0.551079 -49.352564 13.400000
24960 5 0.241459 -46.504825 13.400000
24961 5 0.658174 -47.210857 13.400000
24962 5 1.450712 -44.363118 13.400000
24963 5 1.867428 -45.069151 13.400000
24964 5 2.659966 -42.221412 13.400000
24965 5 3.076681 -42.927444 13.400000
24966 5 3.869219 -40.079705 13.400000
24967 5 4.285934 -40.785738 13.400000
24968 5 5.078472 -37.937999 13.400000
24969 5 5.495187 -38.644031 13.400000
24970 5 6.287725 -35.796292 13.400000
24971 5 6.704440 -36.502325 13.400000
24972 5 7.496978 -33.654586 13.400000
24973 5 7.913694 -34.360618 13.400000
24974 5 8.706232 -31.512879 13.400000
24975 5 9.122947 -32.218912 13.400000
24976 5 9.915485 -29.371173 13.400000
24977 5 10.332200 -30.077205 13.400000
24978 5 11.124738 -27.229466 13.400000
24979 5 11.541453 -27.935499 13.400000
24980 5 12.333991 -25.087760 13.400000
24981 5 12.750706 -25.793792 13.400000
24982 5 13.543244 -22.946053 13.400000
24983 5 13.959960 -23.652086 13.400000
24984 5 14.752498 -20.804347 13.400000
24985 5 15.169213 -21.510379 13.400000
24986 5 15.961751 -18.662640 13.400000
24987 5 16.378466 -19.368673 13.400000
24988 5 17.171004 -16.520934 13.400000
24989 5 17.587719 -17.226966 13.400000
24990 5 18.380257 -14.379227 13.400000
24991 5 18.796972 -15.085260 13.400000
24992 5 19.589510 -12.237521 13.400000
24993 5 20.006226 -12.943553 13.400000
24994 5 20.798764 -10.095814 13.400000
24995 5 21.215479 -10.801847 13.400000
24996 5 22.008017 -7.954108 13.400000
24997 5 22.424732 -8.660140 13.400000
24998 5 23.217270 -5.812401 13.400000
24999 5 23.633985 -6.518434 13.400000
25000 5 24.426523 -3.670695 13.400000
25001 5 24.843238 -4.376727 13.400000
25002 5 25.635776 -1.528988 13.400000
25003 5 26.052492 -2.235021 13.400000
25004 5 26.845030 0.612718 13.400000
25005 5 27.261745 -0.093314 13.400000
25006 5 28.054283 2.754425 13.400000
25007 5 28.470998 2.048392 13.400000
25008 5 29.263536 4.896131 13.400000
25009 5 29.680251 4.190099 13.400000
25010 5 30.472789 7.037838 13.400000
25011 5 30.889504 6.331805 13.400000
25012 5 31.682042 9.179544 13.400000
25013 5 32.098758 8.473512 13.400000
25014 5 32.891296 11.321251 13.400000
25015 5 33.308011 10.615218 13.400000
25016 5 34.100549 13.462957 13.400000
25017 5 34.517264 12.756925 13.400000
25018 5 35.309802 15.604664 13.400000
25019 5 35.726517 14.898631 13.400000
25020 5 36.519055 17.746370 13.400000
25021 5 36.935770 17.040338 13.400000
25022 5 37.728308 19.888077 13.400000
25023 5 38.145024 19.182044 13.400000
25024 5 38.937561 22.029783 13.400000
25025 5 39.354277 21.323751 13.400000
25026 5 40.146815 24.171489 13.400000
25027 5 40.563530 23.465457 13.400000
25028 5 41.356068 26.313196 13.400000
25029 5 41.772783 25.607164 13.400000
25030 5 42.565321 28.454902 13.400000
25031 5 42.982036 27.748870 13.400000
25032 5 43.774574 30.596609 13.400000
25033 5 44.191289 29.890577 13.400000
25034 5 44.983827 32.738315 13.400000
25035 5 45.400543 32.032283 13.400000
25036 5 46.193081 34.880022 13.400000
25037 5 46.609796 34.173990 13.400000
25038 5 47.402334 37.021728 13.400000
25039 5 47.819049 36.315696 13.400000
25040 5 48.611587 39.163435 13.400000
25041 5 49.028302 38.457403 13.400000
25042 5 49.820840 41.305141 13.400000
25043 5 50.237555 40.599109 13.400000
25044 5 51.030093 43.446848 13.400000
25045 5 51.446809 42.740816 13.400000
25046 5 52.239347 45.588554 13.400000
25047 5 52.656062 44.882522 13.400000
25048 5 53.448600 47.730261 13.400000
25049 5 53.865315 47.024229 13.400000
25050 5 54.657853 49.871967 13.400000
25051 5 55.074568 49.165935 13.400000
25052 5 55.867106 52.013674 13.400000
25053 5 56.283821 51.307642 13.400000
25054 5 -3.345408 -57.189748 13.400000
25055 5 -2.928693 -57.895780 13.400000
25056 5 -2.136155 -55.048042 13.400000
25057 5 -1.719440 -55.754074 13.400000
25058 5 -0.926902 -52.906335 13.400000
25059 5 -0.510186 -53.612367 13.400000
25060 5 0.282352 -50.764629 13.400000
25061 5 0.699067 -51.470661 13.400000
25062 5 1.491605 -48.622922 13.400000
25063 5 1.908320 -49.328954 13.400000
25064 5 2.700858 -46.481216 13.400000
25065 5 3.117573 -47.187248 13.400000
25066 5 3.910111 -44.339509 13.400000
25067 5 4.326826 -45.045541 13.400000
25068 5 5.119364 -42.197803 13.400000
25069 5 5.536080 -42.903835 13.400000
25070 5 6.328618 -40.056096 13.400000
25071 5 6.745333 -40.762128 13.400000
25072 5 7.537871 -37.914390 13.400000
25073 5 7.954586 -38.620422 13.400000
25074 5 8.747124 -35.772683 13.400000
25075 5 9.163839 -36.478715 13.400000
25076 5 9.956377 -33.630977 13.400000
25077 5 10.373092 -34.337009 13.400000
25078 5 11.165630 -31.489270 13.400000
25079 5 11.582346 -32.195303 13.400000
25080 5 12.374884 -29.347564 13.400000
25081 5 12.791599 -30.053596 13.400000
25082 5 13.584137 -27.205857 13.400000
25083 5 14.000852 -27.911890 13.400000
25084 5 14.793390 -25.064151 13.400000
25085 5 15.210105 -25.770183 13.400000
25086 5 16.002643 -22.922444 13.400000
25087 5 16.419358 -23.628477 13.400000
25088 5 17.211896 -20.780738 13.400000
25089 5 17.628612 -21.486770 13.400000
25090 5 18.421150 -18.639031 13.400000
25091 5 18.837865 -19.345064 13.400000
25092 5 19.630403 -16.497325 13.400000
25093 5 20.047118 -17.203357 13.400000
25094 5 20.839656 -14.355618 13.400000
25095 5 21.256371 -15.061651 13.400000
25096 5 22.048909 -12.213912 13.400000
25097 5 22.465624 -12.919944 13.400000
25098 5 23.258162 -10.072205 13.400000
25099 5 23.674878 -10.778238 13.400000
25100 5 24.467416 -7.930499 13.400000
25101 5 24.884131 -8.636531 13.400000
25102 5 25.676669 -5.788792 13.400000
25103 5 26.093384 -6.494825 13.400000
25104 5 26.885922 -3.647086 13.400000
25105 5 27.302637 -4.353118 13.400000
25106 5 28.095175 -1.505379 13.400000
25107 5 28.511890 -2.211412 13.400000
25108 5 29.304428 0.636327 13.400000
25109 5 29.721144 -0.069705 13.400000
25110 5 30.513682 2.778034 13.400000
25111 5 30.930397 2.072001 13.400000
25112 5 31.722935 4.919740 13.400000
25113 5 32.139650 4.213708 13.400000
25114 5 32.932188 7.061447 13.400000
25115 5 33.348903 6.355414 13.400000
25116 5 34.141441 9.203153 13.400000
25117 5 34.558156 8.497121 13.400000
25118 5 35.350694 11.344860 13.400000
25119 5 35.767410 10.638827 13.400000
25120 5 36.559948 13.486566 13.400000
25121 5 36.976663 12.780534 13.400000
25122 5 37.769201 15.628273 13.400000
25123 5 38.185916 14.922240 13.400000
25124 5 38.978454 17.769979 13.400000
25125 5 39.395169 17.063947 13.400000
25126 5 40.187707 19.911686 13.400000
25127 5 40.604422 19.205653 13.400000
25128 5 41.396960 22.053392 13.400000
25129 5 41.813676 21.347360 13.400000
25130 5 42.606214 24.195099 13.400000
25131 5 43.022929 23.489066 13.400000
25132 5 43.815467 26.336805 13.400000
25133 5 44.232182 25.630773 13.400000
25134 5 45.024720 28.478512 13.400000
25135 5 45.441435 27.772479 13.400000
25136 5 46.233973 30.620218 13.400000
25137 5 46.650688 29.914186 13.400000
25138 5 47.443226 32.761925 13.400000
25139 5 47.859942 32.055892 13.400000
25140 5 48.652479 34.903631 13.400000
25141 5 49.069195 34.197599 13.400000
25142 5 49.861733 37.045338 13.400000
25143 5 50.278448 36.339305 13.400000
25144 5 51.070986 39.187044 13.400000
25145 5 51.487701 38.481012 13.400000
25146 5 52.280239 41.328751 13.400000
25147 5 52.696954 40.622718 13.400000
25148 5 53.489492 43.470457 13.400000
25149 5 53.906207 42.764425 13.400000
25150 5 54.698745 45.612164 13.400000
25151 5 55.115461 44.906131 13.400000
25152 5 55.907999 47.753870 13.400000
25153 5 56.324714 47.047838 13.400000
25154 5 57.117252 49.895577 13.400000
25155 5 57.533967 49.189544 13.400000
25156 5 -0.886009 -57.166139 13.400000
25157 5 -0.469294 -57.872171 13.400000
25158 5 0.323244 -55.024432 13.400000
25159 5 0.739959 -55.730465 13.400000
25160 5 1.532497 -52.882726 13.400000
25161 5 1.949212 -53.588758 13.400000
25162 5 2.741750 -50.741019 13.400000
25163 5 3.158466 -51.447052 13.400000
25164 5 3.951004 -48.599313 13.400000
25165 5 4.367719 -49.305345 13.400000
25166 5 5.160257 -46.457606 13.400000
25167 5 5.576972 -47.163639 13.400000
25168 5 6.369510 -44.315900 13.400000
25169 5 6.786225 -45.021932 13.400000
25170 5 7.578763 -42.174193 13.400000
25171 5 7.995478 -42.880226 13.400000
25172 5 8.788016 -40.032487 13.400000
25173 5 9.204732 -40.738519 13.400000
25174 5 9.997270 -37.890780 13.400000
25175 5 10.413985 -38.596813 13.400000
25176 5 11.206523 -35.749074 13.400000
25177 5 11.623238 -36.455106 13.400000
25178 5 12.415776 -33.607367 13.400000
25179 5 12.832491 -34.313400 13.400000
25180 5 13.625029 -31.465661 13.400000
25181 5 14.041744 -32.171693 13.400000
25182 5 14.834282 -29.323954 13.400000
25183 5 15.250998 -30.029987 13.400000
25184 5 16.043536 -27.182248 13.400000
25185 5 16.460251 -27.888280 13.400000
25186 5 17.252789 -25.040541 13.400000
25187 5 17.669504 -25.746574 13.400000
25188 5 18.462042 -22.898835 13.400000
25189 5 18.878757 -23.604867 13.400000
25190 5 19.671295 -20.757128 13.400000
25191 5 20.088010 -21.463161 13.400000
25192 5 20.880548 -18.615422 13.400000
25193 5 21.297264 -19.321454 13.400000
25194 5 22.089802 -16.473715 13.400000
25195 5 22.506517 -17.179748 13.400000
25196 5 23.299055 -14.332009 13.400000
25197 5 23.715770 -15.038041 13.400000
25198 5 24.508308 -12.190302 13.400000
25199 5 24.925023 -12.896335 13.400000
25200 5 25.717561 -10.048596 13.400000
25201 5 26.134276 -10.754628 13.400000
25202 5 26.926814 -7.906889 13.400000
25203 5 27.343530 -8.612922 13.400000
25204 5 28.136068 -5.765183 13.400000
25205 5 28.552783 -6.471215 13.400000
25206 5 29.345321 -3.623476 13.400000
25207 5 29.762036 -4.329509 13.400000
25208 5 30.554574 -1.481770 13.400000
25209 5 30.971289 -2.187802 13.400000
25210 5 31.763827 0.659937 13.400000
25211 5 32.180542 -0.046096 13.400000
25212 5 32.973080 2.801643 13.400000
25213 5 33.389796 2.095611 13.400000
25214 5 34.182334 4.943350 13.400000
25215 5 34.599049 4.237317 13.400000
25216 5 35.391587 7.085056 13.400000
25217 5 35.808302 6.379024 13.400000
25218 5 36.600840 9.226763 13.400000
25219 5 37.017555 8.520730 13.400000
25220 5 37.810093 11.368469 13.400000
25221 5 38.226808 10.662437 13.400000
25222 5 39.019346 13.510176 13.400000
25223 5 39.436062 12.804143 13.400000
25224 5 40.228600 15.651882 13.400000
25225 5 40.645315 14.945850 13.400000
25226 5 41.437853 17.793589 13.400000
25227 5 41.854568 17.087556 13.400000
25228 5 42.647106 19.935295 13.400000
25229 5 43.063821 19.229263 13.400000
25230 5 43.856359 22.077002 13.400000
25231 5 44.273074 21.370969 13.400000
25232 5 45.065612 24.218708 13.400000
25233 5 45.482328 23.512676 13.400000
25234 5 46.274866 26.360415 13.400000
25235 5 46.691581 25.654382 13.400000
25236 5 47.484119 28.502121 13.400000
25237 5 47.900834 27.796089 13.400000
25238 5 48.693372 30.643827 13.400000
25239 5 49.110087 29.937795 13.400000
25240 5 49.902625 32.785534 13.400000
25241 5 50.319340 32.079502 13.400000
25242 5 51.111878 34.927240 13.400000
25243 5 51.528594 34.221208 13.400000
25244 5 52.321132 37.068947 13.400000
25245 5 52.737847 36.362915 13.400000
25246 5 53.530385 39.210653 13.400000
25247 5 53.947100 38.504621 13.400000
25248 5 54.739638 41.352360 13.400000
25249 5 55.156353 40.646328 13.400000
25250 5 55.948891 43.494066 13.400000
25251 5 56.365606 42.788034 13.400000
25252 5 57.158144 45.635773 13.400000
25253 5 57.574860 44.929741 13.400000
25254 5 58.367398 47.777479 13.400000
25255 5 58.784113 47.071447 13.400000
25256 5 1.573390 -57.142530 13.400000
25257 5 1.990105 -57.848562 13.400000
25258 5 2.782643 -55.000823 13.400000
25259 5 3.199358 -55.706855 13.400000
25260 5 3.991896 -52.859117 13.400000
25261 5 4.408611 -53.565149 13.400000
25262 5 5.201149 -50.717410 13.400000
25263 5 5.617865 -51.423442 13.400000
25264 5 6.410402 -48.575704 13.400000
25265 5 6.827118 -49.281736 13.400000
25266 5 7.619656 -46.433997 13.400000
25267 5 8.036371 -47.140029 13.400000
25268 5 8.828909 -44.292291 13.400000
25269 5 9.245624 -44.998323 13.400000
25270 5 10.038162 -42.150584 13.400000
25271 5 10.454877 -42.856616 13.400000
25272 5 11.247415 -40.008878 13.400000
25273 5 11.664130 -40.714910 13.400000
25274 5 12.456668 -37.867171 13.400000
25275 5 12.873384 -38.573203 13.400000
25276 5 13.665922 -35.725465 13.400000
25277 5 14.082637 -36.431497 13.400000
25278 5 14.875175 -33.583758 13.400000
25279 5 15.291890 -34.289790 13.400000
25280 5 16.084428 -31.442052 13.400000
25281 5 16.501143 -32.148084 13.400000
25282 5 17.293681 -29.300345 13.400000
25283 5 17.710396 -30.006377 13.400000
25284 5 18.502934 -27.158639 13.400000
25285 5 18.919650 -27.864671 13.400000
25286 5 19.712188 -25.016932 13.400000
25287 5 20.128903 -25.722965 13.400000
25288 5 20.921441 -22.875226 13.400000
25289 5 21.338156 -23.581258 13.400000
25290 5 22.130694 -20.733519 13.400000
25291 5 22.547409 -21.439552 13.400000
25292 5 23.339947 -18.591813 13.400000
25293 5 23.756662 -19.297845 13.400000
25294 5 24.549200 -16.450106 13.400000
25295 5 24.965916 -17.156139 13.400000
25296 5 25.758454 -14.308400 13.400000
25297 5 26.175169 -15.014432 13.400000
25298 5 26.967707 -12.166693 13.400000
25299 5 27.384422 -12.872726 13.400000
25300 5 28.176960 -10.024987 13.400000
25301 5 28.593675 -10.731019 13.400000
25302 5 29.386213 -7.883280 13.400000
25303 5 29.802928 -8.589313 13.400000
25304 5 30.595466 -5.741574 13.400000
25305 5 31.012182 -6.447606 13.400000
25306 5 31.804720 -3.599867 13.400000
25307 5 32.221435 -4.305900 13.400000
25308 5 33.013973 -1.458161 13.400000
25309 5 33.430688 -2.164193 13.400000
25310 5 34.223226 0.683546 13.400000
25311 5 34.639941 -0.022487 13.400000
25312 5 35.432479 2.825252 13.400000
25313 5 35.849194 2.119220 13.400000
25314 5 36.641732 4.966959 13.400000
25315 5 37.058448 4.260926 13.400000
25316 5 37.850986 7.108665 13.400000
25317 5 38.267701 6.402633 13.400000
25318 5 39.060239 9.250372 13.400000
25319 5 39.476954 8.544339 13.400000
25320 5 40.269492 11.392078 13.400000
25321 5 40.686207 10.686046 13.400000
25322 5 41.478745 13.533785 13.400000
25323 5 41.895460 12.827752 13.400000
25324 5 42.687998 15.675491 13.400000
25325 5 43.104714 14.969459 13.400000
25326 5 43.897252 17.817198 13.400000
25327 5 44.313967 17.111165 13.400000
25328 5 45.106505 19.958904 13.400000
25329 5 45.523220 19.252872 13.400000
25330 5 46.315758 22.100611 13.400000
25331 5 46.732473 21.394578 13.400000
25332 5 47.525011 24.242317 13.400000
25333 5 47.941726 23.536285 13.400000
25334 5 48.734264 26.384024 13.400000
25335 5 49.150980 25.677991 13.400000
25336 5 49.943518 28.525730 13.400000
25337 5 50.360233 27.819698 13.400000
25338 5 51.152771 30.667437 13.400000
25339 5 51.569486 29.961404 13.400000
25340 5 52.362024 32.809143 13.400000
25341 5 52.778739 32.103111 13.400000
25342 5 53.571277 34.950850 13.400000
25343 5 53.987992 34.244817 13.400000
25344 5 54.780530 37.092556 13.400000
25345 5 55.197246 36.386524 13.400000
25346 5 55.989784 39.234263 13.400000
25347 5 56.406499 38.528230 13.400000
25348 5 57.199037 41.375969 13.400000
25349 5 57.615752 40.669937 13.400000
25350 5 58.408290 43.517676 13.400000
25351 5 58.825005 42.811643 13.400000
25352 5 59.617543 45.659382 13.400000
25353 5 60.034258 44.953350 13.400000
25354 5 4.032789 -57.118920 13.400000
25355 5 4.449504 -57.824953 13.400000
25356 5 5.242042 -54.977214 13.400000
25357 5 5.658757 -55.683246 13.400000
25358 5 6.451295 -52.835507 13.400000
25359 5 6.868010 -53.541540 13.400000
25360 5 7.660548 -50.693801 13.400000
25361 5 8.077263 -51.399833 13.400000
25362 5 8.869801 -48.552094 13.400000
25363 5 9.286517 -49.258127 13.400000
25364 5 10.079055 -46.410388 13.400000
25365 5 10.495770 -47.116420 13.400000
25366 5 11.288308 -44.268681 13.400000
25367 5 11.705023 -44.974714 13.400000
25368 5 12.497561 -42.126975 13.400000
25369 5 12.914276 -42.833007 13.400000
25370 5 13.706814 -39.985268 13.400000
25371 5 14.123529 -40.691301 13.400000
25372 5 14.916067 -37.843562 13.400000
25373 5 15.332783 -38.549594 13.400000
25374 5 16.125320 -35.701855 13.400000
25375 5 16.542036 -36.407888 13.400000
25376 5 17.334574 -33.560149 13.400000
25377 5 17.751289 -34.266181 13.400000
25378 5 18.543827 -31.418442 13.400000
25379 5 18.960542 -32.124475 13.400000
25380 5 19.753080 -29.276736 13.400000
25381 5 20.169795 -29.982768 13.400000
25382 5 20.962333 -27.135029 13.400000
25383 5 21.379048 -27.841062 13.400000
25384 5 22.171586 -24.993323 13.400000
25385 5 22.588302 -25.699355 13.400000
25386 5 23.380840 -22.851616 13.400000
25387 5 23.797555 -23.557649 13.400000
25388 5 24.590093 -20.709910 13.400000
25389 5 25.006808 -21.415942 13.400000
25390 5 25.799346 -18.568203 13.400000
25391 5 26.216061 -19.274236 13.400000
25392 5 27.008599 -16.426497 13.400000
25393 5 27.425314 -17.132529 13.400000
25394 5 28.217852 -14.284790 13.400000
25395 5 28.634568 -14.990823 13.400000
25396 5 29.427106 -12.143084 13.400000
25397 5 29.843821 -12.849116 13.400000
25398 5 30.636359 -10.001377 13.400000
25399 5 31.053074 -10.707410 13.400000
25400 5 31.845612 -7.859671 13.400000
25401 5 32.262327 -8.565703 13.400000
25402 5 33.054865 -5.717964 13.400000
25403 5 33.471580 -6.423997 13.400000
25404 5 34.264118 -3.576258 13.400000
25405 5 34.680834 -4.282290 13.400000
25406 5 35.473372 -1.434551 13.400000
25407 5 35.890087 -2.140584 13.400000
25408 5 36.682625 0.707155 13.400000
25409 5 37.099340 0.001123 13.400000
25410 5 37.891878 2.848862 13.400000
25411 5 38.308593 2.142829 13.400000
25412 5 39.101131 4.990568 13.400000
25413 5 39.517846 4.284536 13.400000
25414 5 40.310384 7.132275 13.400000
25415 5 40.727100 6.426242 13.400000
25416 5 41.519638 9.273981 13.400000
25417 5 41.936353 8.567949 13.400000
25418 5 42.728891 11.415688 13.400000
25419 5 43.145606 10.709655 13.400000
25420 5 43.938144 13.557394 13.400000
25421 5 44.354859 12.851362 13.400000
25422 5 45.147397 15.699101 13.400000
25423 5 45.564112 14.993068 13.400000
25424 5 46.356650 17.840807 13.400000
25425 5 46.773366 17.134775 13.400000
25426 5 47.565904 19.982514 13.400000
25427 5 47.982619 19.276481 13.400000
25428 5 48.775157 22.124220 13.400000
25429 5 49.191872 21.418188 13.400000
25430 5 49.984410 24.265927 13.400000
25431 5 50.401125 23.559894 13.400000
25432 5 51.193663 26.407633 13.400000
25433 5 51.610378 25.701601 13.400000
25434 5 52.402916 28.549340 13.400000
25435 5 52.819632 27.843307 13.400000
25436 5 53.612170 30.691046 13.400000
25437 5 54.028885 29.985014 13.400000
25438 5 54.821423 32.832753 13.400000
25439 5 55.238138 32.126720 13.400000
25440 5 56.030676 34.974459 13.400000
25441 5 56.447391 34.268427 13.400000
25442 5 57.239929 37.116165 13.400000
25443 5 57.656644 36.410133 13.400000
25444 5 58.449182 39.257872 13.400000
25445 5 58.865898 38.551840 13.400000
25446 5 59.658436 41.399578 13.400000
25447 5 60.075151 40.693546 13.400000
25448 5 60.867689 43.541285 13.400000
25449 5 61.284404 42.835253 13.400000
25450 5 6.492187 -57.095311 13.400000
25451 5 6.908903 -57.801343 13.400000
25452 5 7.701441 -54.953604 13.400000
25453 5 8.118156 -55.659637 13.400000
25454 5 8.910694 -52.811898 13.400000
25455 5 9.327409 -53.517930 13.400000
25456 5 10.119947 -50.670192 13.400000
25457 5 10.536662 -51.376224 13.400000
25458 5 11.329200 -48.528485 13.400000
25459 5 11.745915 -49.234517 13.400000
25460 5 12.538453 -46.386779 13.400000
25461 5 12.955169 -47.092811 13.400000
25462 5 13.747707 -44.245072 13.400000
25463 5 14.164422 -44.951104 13.400000
25464 5 14.956960 -42.103366 13.400000
25465 5 15.373675 -42.809398 13.400000
25466 5 16.166213 -39.961659 13.400000
25467 5 16.582928 -40.667691 13.400000
25468 5 17.375466 -37.819953 13.400000
25469 5 17.792181 -38.525985 13.400000
25470 5 18.584719 -35.678246 13.400000
25471 5 19.001435 -36.384278 13.400000
25472 5 19.793973 -33.536540 13.400000
25473 5 20.210688 -34.242572 13.400000
25474 5 21.003226 -31.394833 13.400000
25475 5 21.419941 -32.100865 13.400000
25476 5 22.212479 -29.253127 13.400000
25477 5 22.629194 -29.959159 13.400000
25478 5 23.421732 -27.111420 13.400000
25479 5 23.838447 -27.817452 13.400000
25480 5 24.630985 -24.969714 13.400000
25481 5 25.047701 -25.675746 13.400000
25482 5 25.840239 -22.828007 13.400000
25483 5 26.256954 -23.534039 13.400000
25484 5 27.049492 -20.686301 13.400000
25485 5 27.466207 -21.392333 13.400000
25486 5 28.258745 -18.544594 13.400000
25487 5 28.675460 -19.250627 13.400000
25488 5 29.467998 -16.402888 13.400000
25489 5 29.884713 -17.108920 13.400000
25490 5 30.677251 -14.261181 13.400000
25491 5 31.093967 -14.967214 13.400000
25492 5 31.886504 -12.119475 13.400000
25493 5 32.303220 -12.825507 13.400000
25494 5 33.095758 -9.977768 13.400000
25495 5 33.512473 -10.683801 13.400000
25496 5 34.305011 -7.836062 13.400000
25497 5 34.721726 -8.542094 13.400000
25498 5 35.514264 -5.694355 13.400000
25499 5 35.930979 -6.400388 13.400000
25500 5 36.723517 -3.552649 13.400000
25501 5 37.140232 -4.258681 13.400000
25502 5 37.932770 -1.410942 13.400000
25503 5 38.349486 -2.116975 13.400000
25504 5 39.142024 0.730764 13.400000
25505 5 39.558739 0.024732 13.400000
25506 5 40.351277 2.872471 13.400000
25507 5 40.767992 2.166438 13.400000
25508 5 41.560530 5.014177 13.400000
25509 5 41.977245 4.308145 13.400000
25510 5 42.769783 7.155884 13.400000
25511 5 43.186498 6.449851 13.400000
25512 5 43.979036 9.297590 13.400000
25513 5 44.395752 8.591558 13.400000
25514 5 45.188290 11.439297 13.400000
25515 5 45.605005 10.733264 13.400000
25516 5 46.397543 13.581003 13.400000
25517 5 46.814258 12.874971 13.400000
25518 5 47.606796 15.722710 13.400000
25519 5 48.023511 15.016677 13.400000
25520 5 48.816049 17.864416 13.400000
25521 5 49.232764 17.158384 13.400000
25522 5 50.025302 20.006123 13.400000
25523 5 50.442018 19.300090 13.400000
25524 5 51.234556 22.147829 13.400000
25525 5 51.651271 21.441797 13.400000
25526 5 52.443809 24.289536 13.400000
25527 5 52.860524 23.583503 13.400000
25528 5 53.653062 26.431242 13.400000
25529 5 54.069777 25.725210 13.400000
25530 5 54.862315 28.572949 13.400000
25531 5 55.279030 27.866916 13.400000
25532 5 56.071568 30.714655 13.400000
25533 5 56.488284 30.008623 13.400000
25534 5 57.280822 32.856362 13.400000
25535 5 57.697537 32.150329 13.400000
25536 5 58.490075 34.998068 13.400000
25537 5 58.906790 34.292036 13.400000
25538 5 59.699328 37.139775 13.400000
25539 5 60.116043 36.433742 13.400000
25540 5 60.908581 39.281481 13.400000
25541 5 61.325296 38.575449 13.400000
25542 5 62.117834 41.423188 13.400000
25543 5 62.534550 40.717155 13.400000
25544 5 63.327088 43.564894 13.400000
25545 5 63.743803 42.858862 13.400000
25546 5 8.951586 -57.071702 13.400000
25547 5 9.368301 -57.777734 13.400000
25548 5 10.160839 -54.929995 13.400000
25549 5 10.577555 -55.636028 13.400000
25550 5 11.370093 -52.788289 13.400000
25551 5 11.786808 -53.494321 13.400000
25552 5 12.579346 -50.646582 13.400000
25553 5 12.996061 -51.352615 13.400000
25554 5 13.788599 -48.504876 13.400000
25555 5 14.205314 -49.210908 13.400000
25556 5 14.997852 -46.363169 13.400000
25557 5 15.414567 -47.069202 13.400000
25558 5 16.207105 -44.221463 13.400000
25559 5 16.623821 -44.927495 13.400000
25560 5 17.416359 -42.079756 13.400000
25561 5 17.833074 -42.785789 13.400000
25562 5 18.625612 -39.938050 13.400000
25563 5 19.042327 -40.644082 13.400000
25564 5 19.834865 -37.796343 13.400000
25565 5 20.251580 -38.502376 13.400000
25566 5 21.044118 -35.654637 13.400000
25567 5 21.460833 -36.360669 13.400000
25568 5 22.253371 -33.512930 13.400000
25569 5 22.670087 -34.218963 13.400000
25570 5 23.462625 -31.371224 13.400000
25571 5 23.879340 -32.077256 13.400000
25572 5 24.671878 -29.229517 13.400000
25573 5 25.088593 -29.935550 13.400000
25574 5 25.881131 -27.087811 13.400000
25575 5 26.297846 -27.793843 13.400000
25576 5 27.090384 -24.946104 13.400000
25577 5 27.507099 -25.652137 13.400000
25578 5 28.299637 -22.804398 13.400000
25579 5 28.716353 -23.510430 13.400000
25580 5 29.508891 -20.662691 13.400000
25581 5 29.925606 -21.368724 13.400000
25582 5 30.718144 -18.520985 13.400000
25583 5 31.134859 -19.227017 13.400000
25584 5 31.927397 -16.379278 13.400000
25585 5 32.344112 -17.085311 13.400000
25586 5 33.136650 -14.237572 13.400000
25587 5 33.553365 -14.943604 13.400000
25588 5 34.345903 -12.095865 13.400000
25589 5 34.762619 -12.801898 13.400000
25590 5 35.555157 -9.954159 13.400000
25591 5 35.971872 -10.660191 13.400000
25592 5 36.764410 -7.812452 13.400000
25593 5 37.181125 -8.518485 13.400000
25594 5 37.973663 -5.670746 13.400000
25595 5 38.390378 -6.376778 13.400000
25596 5 39.182916 -3.529039 13.400000
25597 5 39.599631 -4.235072 13.400000
25598 5 40.392169 -1.387333 13.400000
25599 5 40.808885 -2.093365 13.400000
25600 5 41.601422 0.754374 13.400000
25601 5 42.018138 0.048341 13.400000
25602 5 42.810676 2.896080 13.400000
25603 5 43.227391 2.190048 13.400000
25604 5 44.019929 5.037787 13.400000
25605 5 44.436644 4.331754 13.400000
25606 5 45.229182 7.179493 13.400000
25607 5 45.645897 6.473461 13.400000
25608 5 46.438435 9.321200 13.400000
25609 5 46.855150 8.615167 13.400000
25610 5 47.647688 11.462906 13.400000
25611 5 48.064404 10.756874 13.400000
25612 5 48.856942 13.604613 13.400000
25613 5 49.273657 12.898580 13.400000
25614 5 50.066195 15.746319 13.400000
25615 5 50.482910 15.040287 13.400000
25616 5 51.275448 17.888026 13.400000
25617 5 51.692163 17.181993 13.400000
25618 5 52.484701 20.029732 13.400000
25619 5 52.901416 19.323700 13.400000
25620 5 53.693954 22.171439 13.400000
25621 5 54.110670 21.465406 13.400000
25622 5 54.903208 24.313145 13.400000
25623 5 55.319923 23.607113 13.400000
25624 5 56.112461 26.454852 13.400000
25625 5 56.529176 25.748819 13.400000
25626 5 57.321714 28.596558 13.400000
25627 5 57.738429 27.890526 13.400000
25628 5 58.530967 30.738265 13.400000
25629 5 58.947682 30.032232 13.400000
25630 5 59.740220 32.879971 13.400000
25631 5 60.156936 32.173939 13.400000
25632 5 60.949474 35.021678 13.400000
25633 5 61.366189 34.315645 13.400000
25634 5 62.158727 37.163384 13.400000
25635 5 62.575442 36.457352 13.400000
25636 5 63.367980 39.305091 13.400000
25637 5 63.784695 38.599058 13.400000
25638 5 64.577233 41.446797 13.400000
25639 5 64.993948 40.740765 13.400000
25640 5 11.410985 -57.048092 13.400000
25641 5 11.827700 -57.754125 13.400000
25642 5 12.620238 -54.906386 13.400000
25643 5 13.036953 -55.612418 13.400000
25644 5 13.829491 -52.764679 13.400000
25645 5 14.246207 -53.470712 13.400000
25646 5 15.038745 -50.622973 13.400000
25647 5 15.455460 -51.329005 13.400000
25648 5 16.247998 -48.481266 13.400000
25649 5 16.664713 -49.187299 13.400000
25650 5 17.457251 -46.339560 13.400000
25651 5 17.873966 -47.045592 13.400000
25652 5 18.666504 -44.197854 13.400000
25653 5 19.083219 -44.903886 13.400000
25654 5 19.875757 -42.056147 13.400000
25655 5 20.292473 -42.762179 13.400000
25656 5 21.085011 -39.914441 13.400000
25657 5 21.501726 -40.620473 13.400000
25658 5 22.294264 -37.772734 13.400000
25659 5 22.710979 -38.478766 13.400000
25660 5 23.503517 -35.631028 13.400000
25661 5 23.920232 -36.337060 13.400000
25662 5 24.712770 -33.489321 13.400000
25663 5 25.129485 -34.195353 13.400000
25664 5 25.922023 -31.347615 13.400000
25665 5 26.338739 -32.053647 13.400000
25666 5 27.131277 -29.205908 13.400000
25667 5 27.547992 -29.911940 13.400000
25668 5 28.340530 -27.064202 13.400000
25669 5 28.757245 -27.770234 13.400000
25670 5 29.549783 -24.922495 13.400000
25671 5 29.966498 -25.628527 13.400000
25672 5 30.759036 -22.780789 13.400000
25673 5 31.175751 -23.486821 13.400000
25674 5 31.968289 -20.639082 13.400000
25675 5 32.385005 -21.345114 13.400000
25676 5 33.177543 -18.497376 13.400000
25677 5 33.594258 -19.203408 13.400000
25678 5 34.386796 -16.355669 13.400000
25679 5 34.803511 -17.061701 13.400000
25680 5 35.596049 -14.213963 13.400000
25681 5 36.012764 -14.919995 13.400000
25682 5 36.805302 -12.072256 13.400000
25683 5 37.222017 -12.778289 13.400000
25684 5 38.014555 -9.930550 13.400000
25685 5 38.431271 -10.636582 13.400000
25686 5 39.223809 -7.788843 13.400000
25687 5 39.640524 -8.494876 13.400000
25688 5 40.433062 -5.647137 13.400000
25689 5 40.849777 -6.353169 13.400000
25690 5 41.642315 -3.505430 13.400000
25691 5 42.059030 -4.211463 13.400000
25692 5 42.851568 -1.363724 13.400000
25693 5 43.268283 -2.069756 13.400000
25694 5 44.060821 0.777983 13.400000
25695 5 44.477537 0.071950 13.400000
25696 5 45.270075 2.919689 13.400000
25697 5 45.686790 2.213657 13.400000
25698 5 46.479328 5.061396 13.400000
25699 5 46.896043 4.355363 13.400000
25700 5 47.688581 7.203102 13.400000
25701 5 48.105296 6.497070 13.400000
25702 5 48.897834 9.344809 13.400000
25703 5 49.314549 8.638776 13.400000
25704 5 50.107087 11.486515 13.400000
25705 5 50.523803 10.780483 13.400000
25706 5 51.316341 13.628222 13.400000
25707 5 51.733056 12.922189 13.400000
25708 5 52.525594 15.769928 13.400000
25709 5 52.942309 15.063896 13.400000
25710 5 53.734847 17.911635 13.400000
25711 5 54.151562 17.205602 13.400000
25712 5 54.944100 20.053341 13.400000
25713 5 55.360815 19.347309 13.400000
25714 5 56.153353 22.195048 13.400000
25715 5 56.570069 21.489015 13.400000
25716 5 57.362606 24.336754 13.400000
25717 5 57.779322 23.630722 13.400000
25718 5 58.571860 26.478461 13.400000
25719 5 58.988575 25.772428 13.400000
25720 5 59.781113 28.620167 13.400000
25721 5 60.197828 27.914135 13.400000
25722 5 60.990366 30.761874 13.400000
25723 5 61.407081 30.055841 13.400000
25724 5 62.199619 32.903580 13.400000
25725 5 62.616334 32.197548 13.400000
25726 5 63.408872 35.045287 13.400000
25727 5 63.825588 34.339254 13.400000
25728 5 64.618126 37.186993 13.400000
25729 5 65.034841 36.480961 13.400000
25730 5 65.827379 39.328700 13.400000
25731 5 66.244094 38.622667 13.400000
25732 5 13.870384 -57.024483 13.400000
25733 5 14.287099 -57.730516 13.400000
25734 5 15.079637 -54.882777 13.400000
25735 5 15.496352 -55.588809 13.400000
25736 5 16.288890 -52.741070 13.400000
25737 5 16.705605 -53.447103 13.400000
25738 5 17.498143 -50.599364 13.400000
25739 5 17.914859 -51.305396 13.400000
25740 5 18.707397 -48.457657 13.400000
25741 5 19.124112 -49.163690 13.400000
25742 5 19.916650 -46.315951 13.400000
25743 5 20.333365 -47.021983 13.400000
25744 5 21.125903 -44.174244 13.400000
25745 5 21.542618 -44.880277 13.400000
25746 5 22.335156 -42.032538 13.400000
25747 5 22.751871 -42.738570 13.400000
25748 5 23.544409 -39.890831 13.400000
25749 5 23.961125 -40.596864 13.400000
25750 5 24.753663 -37.749125 13.400000
25751 5 25.170378 -38.455157 13.400000
25752 5 25.962916 -35.607418 13.400000
25753 5 26.379631 -36.313451 13.400000
25754 5 27.172169 -33.465712 13.400000
25755 5 27.588884 -34.171744 13.400000
25756 5 28.381422 -31.324005 13.400000
25757 5 28.798137 -32.030038 13.400000
25758 5 29.590675 -29.182299 13.400000
25759 5 30.007391 -29.888331 13.400000
25760 5 30.799929 -27.040592 13.400000
25761 5 31.216644 -27.746625 13.400000
25762 5 32.009182 -24.898886 13.400000
25763 5 32.425897 -25.604918 13.400000
25764 5 33.218435 -22.757179 13.400000
25765 5 33.635150 -23.463212 13.400000
25766 5 34.427688 -20.615473 13.400000
25767 5 34.844403 -21.321505 13.400000
25768 5 35.636941 -18.473766 13.400000
25769 5 36.053657 -19.179799 13.400000
25770 5 36.846195 -16.332060 13.400000
25771 5 37.262910 -17.038092 13.400000
25772 5 38.055448 -14.190353 13.400000
25773 5 38.472163 -14.896386 13.400000
25774 5 39.264701 -12.048647 13.400000
25775 5 39.681416 -12.754679 13.400000
25776 5 40.473954 -9.906940 13.400000
25777 5 40.890669 -10.612973 13.400000
25778 5 41.683207 -7.765234 13.400000
25779 5 42.099923 -8.471266 13.400000
25780 5 42.892461 -5.623527 13.400000
25781 5 43.309176 -6.329560 13.400000
25782 5 44.101714 -3.481821 13.400000
25783 5 44.518429 -4.187853 13.400000
25784 5 45.310967 -1.340114 13.400000
25785 5 45.727682 -2.046147 13.400000
25786 5 46.520220 0.801592 13.400000
25787 5 46.936935 0.095560 13.400000
25788 5 47.729473 2.943299 13.400000
25789 5 48.146189 2.237266 13.400000
25790 5 48.938727 5.085005 13.400000
25791 5 49.355442 4.378973 13.400000
25792 5 50.147980 7.226712 13.400000
25793 5 50.564695 6.520679 13.400000
25794 5 51.357233 9.368418 13.400000
25795 5 51.773948 8.662386 13.400000
25796 5 52.566486 11.510125 13.400000
25797 5 52.983201 10.804092 13.400000
25798 5 53.775739 13.651831 13.400000
25799 5 54.192455 12.945799 13.400000
25800 5 54.984993 15.793538 13.400000
25801 5 55.401708 15.087505 13.400000
25802 5 56.194246 17.935244 13.400000
25803 5 56.610961 17.229212 13.400000
25804 5 57.403499 20.076951 13.400000
25805 5 57.820214 19.370918 13.400000
25806 5 58.612752 22.218657 13.400000
25807 5 59.029467 21.512625 13.400000
25808 5 59.822005 24.360364 13.400000
25809 5 60.238721 23.654331 13.400000
25810 5 61.031259 26.502070 13.400000
25811 5 61.447974 25.796038 13.400000
25812 5 62.240512 28.643777 13.400000
25813 5 62.657227 27.937744 13.400000
25814 5 63.449765 30.785483 13.400000
25815 5 63.866480 30.079451 13.400000
25816 5 64.659018 32.927190 13.400000
25817 5 65.075733 32.221157 13.400000
25818 5 65.868271 35.068896 13.400000
25819 5 66.284987 34.362864 13.400000
25820 5 67.077524 37.210603 13.400000
25821 5 67.494240 36.504570 13.400000
25822 5 16.329783 -57.000874 13.400000
25823 5 16.746498 -57.706906 13.400000
25824 5 17.539036 -54.859167 13.400000
25825 5 17.955751 -55.565200 13.400000
25826 5 18.748289 -52.717461 13.400000
25827 5 19.165004 -53.423493 13.400000
25828 5 19.957542 -50.575754 13.400000
25829 5 20.374257 -51.281787 13.400000
25830 5 21.166795 -48.434048 13.400000
25831 5 21.583511 -49.140080 13.400000
25832 5 22.376049 -46.292341 13.400000
25833 5 22.792764 -46.998374 13.400000
25834 5 23.585302 -44.150635 13.400000
25835 5 24.002017 -44.856667 13.400000
25836 5 24.794555 -42.008928 13.400000
25837 5 25.211270 -42.714961 13.400000
25838 5 26.003808 -39.867222 13.400000
25839 5 26.420523 -40.573254 13.400000
25840 5 27.213061 -37.725516 13.400000
25841 5 27.629777 -38.431548 13.400000
25842 5 28.422315 -35.583809 13.400000
25843 5 28.839030 -36.289841 13.400000
25844 5 29.631568 -33.442103 13.400000
25845 5 30.048283 -34.148135 13.400000
25846 5 30.840821 -31.300396 13.400000
25847 5 31.257536 -32.006428 13.400000
25848 5 32.050074 -29.158690 13.400000
25849 5 32.466789 -29.864722 13.400000
25850 5 33.259327 -27.016983 13.400000
25851 5 33.676043 -27.723015 13.400000
25852 5 34.468581 -24.875277 13.400000
25853 5 34.885296 -25.581309 13.400000
25854 5 35.677834 -22.733570 13.400000
25855 5 36.094549 -23.439602 13.400000
25856 5 36.887087 -20.591864 13.400000
25857 5 37.303802 -21.297896 13.400000
25858 5 38.096340 -18.450157 13.400000
25859 5 38.513055 -19.156189 13.400000
25860 5 39.305593 -16.308451 13.400000
25861 5 39.722309 -17.014483 13.400000
25862 5 40.514847 -14.166744 13.400000
25863 5 40.931562 -14.872776 13.400000
25864 5 41.724100 -12.025038 13.400000
25865 5 42.140815 -12.731070 13.400000
25866 5 42.933353 -9.883331 13.400000
25867 5 43.350068 -10.589363 13.400000
25868 5 44.142606 -7.741625 13.400000
25869 5 44.559321 -8.447657 13.400000
25870 5 45.351859 -5.599918 13.400000
25871 5 45.768575 -6.305951 13.400000
25872 5 46.561113 -3.458212 13.400000
25873 5 46.977828 -4.164244 13.400000
25874 5 47.770366 -1.316505 13.400000
25875 5 48.187081 -2.022538 13.400000
25876 5 48.979619 0.825201 13.400000
25877 5 49.396334 0.119169 13.400000
25878 5 50.188872 2.966908 13.400000
25879 5 50.605587 2.260875 13.400000
25880 5 51.398125 5.108614 13.400000
25881 5 51.814841 4.402582 13.400000
25882 5 52.607379 7.250321 13.400000
25883 5 53.024094 6.544288 13.400000
25884 5 53.816632 9.392027 13.400000
25885 5 54.233347 8.685995 13.400000
25886 5 55.025885 11.533734 13.400000
25887 5 55.442600 10.827701 13.400000
25888 5 56.235138 13.675440 13.400000
25889 5 56.651853 12.969408 13.400000
25890 5 57.444391 15.817147 13.400000
25891 5 57.861107 15.111114 13.400000
25892 5 58.653645 17.958853 13.400000
25893 5 59.070360 17.252821 13.400000
25894 5 59.862898 20.100560 13.400000
25895 5 60.279613 19.394527 13.400000
25896 5 61.072151 22.242266 13.400000
25897 5 61.488866 21.536234 13.400000
25898 5 62.281404 24.383973 13.400000
25899 5 62.698119 23.677940 13.400000
25900 5 63.490657 26.525679 13.400000
25901 5 63.907373 25.819647 13.400000
25902 5 64.699911 28.667386 13.400000
25903 5 65.116626 27.961353 13.400000
25904 5 65.909164 30.809092 13.400000
25905 5 66.325879 30.103060 13.400000
25906 5 67.118417 32.950799 13.400000
25907 5 67.535132 32.244766 13.400000
25908 5 68.327670 35.092505 13.400000
25909 5 68.744385 34.386473 13.400000
25910 5 18.789182 -56.977265 13.400000
25911 5 19.205897 -57.683297 13.400000
25912 5 19.998435 -54.835558 13.400000
25913 5 20.415150 -55.541591 13.400000
25914 5 21.207688 -52.693852 13.400000
25915 5 21.624403 -53.399884 13.400000
25916 5 22.416941 -50.552145 13.400000
25917 5 22.833656 -51.258178 13.400000
25918 5 23.626194 -48.410439 13.400000
25919 5 24.042910 -49.116471 13.400000
25920 5 24.835447 -46.268732 13.400000
25921 5 25.252163 -46.974765 13.400000
25922 5 26.044701 -44.127026 13.400000
25923 5 26.461416 -44.833058 13.400000
25924 5 27.253954 -41.985319 13.400000
25925 5 27.670669 -42.691352 13.400000
25926 5 28.463207 -39.843613 13.400000
25927 5 28.879922 -40.549645 13.400000
25928 5 29.672460 -37.701906 13.400000
25929 5 30.089175 -38.407939 13.400000
25930 5 30.881713 -35.560200 13.400000
25931 5 31.298429 -36.266232 13.400000
25932 5 32.090967 -33.418493 13.400000
25933 5 32.507682 -34.124526 13.400000
25934 5 33.300220 -31.276787 13.400000
25935 5 33.716935 -31.982819 13.400000
25936 5 34.509473 -29.135080 13.400000
25937 5 34.926188 -29.841113 13.400000
25938 5 35.718726 -26.993374 13.400000
25939 5 36.135441 -27.699406 13.400000
25940 5 36.927979 -24.851667 13.400000
25941 5 37.344695 -25.557700 13.400000
25942 5 38.137233 -22.709961 13.400000
25943 5 38.553948 -23.415993 13.400000
25944 5 39.346486 -20.568254 13.400000
25945 5 39.763201 -21.274287 13.400000
25946 5 40.555739 -18.426548 13.400000
25947 5 40.972454 -19.132580 13.400000
25948 5 41.764992 -16.284841 13.400000
25949 5 42.181707 -16.990874 13.400000
25950 5 42.974245 -14.143135 13.400000
25951 5 43.390961 -14.849167 13.400000
25952 5 44.183499 -12.001428 13.400000
25953 5 44.600214 -12.707461 13.400000
25954 5 45.392752 -9.859722 13.400000
25955 5 45.809467 -10.565754 13.400000
25956 5 46.602005 -7.718015 13.400000
25957 5 47.018720 -8.424048 13.400000
25958 5 47.811258 -5.576309 13.400000
25959 5 48.227973 -6.282341 13.400000
25960 5 49.020511 -3.434602 13.400000
25961 5 49.437227 -4.140635 13.400000
25962 5 50.229765 -1.292896 13.400000
25963 5 50.646480 -1.998928 13.400000
25964 5 51.439018 0.848811 13.400000
25965 5 51.855733 0.142778 13.400000
25966 5 52.648271 2.990517 13.400000
25967 5 53.064986 2.284485 13.400000
25968 5 53.857524 5.132224 13.400000
25969 5 54.274239 4.426191 13.400000
25970 5 55.066777 7.273930 13.400000
25971 5 55.483493 6.567898 13.400000
25972 5 56.276031 9.415637 13.400000
25973 5 56.692746 8.709604 13.400000
25974 5 57.485284 11.557343 13.400000
25975 5 57.901999 10.851311 13.400000
25976 5 58.694537 13.699050 13.400000
25977 5 59.111252 12.993017 13.400000
25978 5 59.903790 15.840756 13.400000
25979 5 60.320505 15.134724 13.400000
25980 5 61.113043 17.982463 13.400000
25981 5 61.529759 17.276430 13.400000
25982 5 62.322297 20.124169 13.400000
25983 5 62.739012 19.418137 13.400000
25984 5 63.531550 22.265876 13.400000
25985 5 63.948265 21.559843 13.400000
25986 5 64.740803 24.407582 13.400000
25987 5 65.157518 23.701550 13.400000
25988 5 65.950056 26.549289 13.400000
25989 5 66.366771 25.843256 13.400000
25990 5 67.159309 28.690995 13.400000
25991 5 67.576025 27.984963 13.400000
25992 5 68.368563 30.832702 13.400000
25993 5 68.785278 30.126669 13.400000
25994 5 21.248580 -56.953655 13.400000
25995 5 21.665296 -57.659688 13.400000
25996 5 22.457834 -54.811949 13.400000
25997 5 22.874549 -55.517981 13.400000
25998 5 23.667087 -52.670242 13.400000
25999 5 24.083802 -53.376275 13.400000
26000 5 24.876340 -50.528536 13.400000
26001 5 25.293055 -51.234568 13.400000
26002 5 26.085593 -48.386829 13.400000
26003 5 26.502308 -49.092862 13.400000
26004 5 27.294846 -46.245123 13.400000
26005 5 27.711562 -46.951155 13.400000
26006 5 28.504100 -44.103416 13.400000
26007 5 28.920815 -44.809449 13.400000
26008 5 29.713353 -41.961710 13.400000
26009 5 30.130068 -42.667742 13.400000
26010 5 30.922606 -39.820003 13.400000
26011 5 31.339321 -40.526036 13.400000
26012 5 32.131859 -37.678297 13.400000
26013 5 32.548574 -38.384329 13.400000
26014 5 33.341112 -35.536590 13.400000
26015 5 33.757828 -36.242623 13.400000
26016 5 34.550365 -33.394884 13.400000
26017 5 34.967081 -34.100916 13.400000
26018 5 35.759619 -31.253178 13.400000
26019 5 36.176334 -31.959210 13.400000
26020 5 36.968872 -29.111471 13.400000
26021 5 37.385587 -29.817503 13.400000
26022 5 38.178125 -26.969765 13.400000
26023 5 38.594840 -27.675797 13.400000
26024 5 39.387378 -24.828058 13.400000
26025 5 39.804093 -25.534090 13.400000
26026 5 40.596631 -22.686352 13.400000
26027 5 41.013347 -23.392384 13.400000
26028 5 41.805885 -20.544645 13.400000
26029 5 42.222600 -21.250677 13.400000
26030 5 43.015138 -18.402939 13.400000
26031 5 43.431853 -19.108971 13.400000
26032 5 44.224391 -16.261232 13.400000
26033 5 44.641106 -16.967264 13.400000
26034 5 45.433644 -14.119526 13.400000
26035 5 45.850359 -14.825558 13.400000
26036 5 46.642897 -11.977819 13.400000
26037 5 47.059613 -12.683851 13.400000
26038 5 47.852151 -9.836113 13.400000
26039 5 48.268866 -10.542145 13.400000
26040 5 49.061404 -7.694406 13.400000
26041 5 49.478119 -8.400438 13.400000
26042 5 50.270657 -5.552700 13.400000
26043 5 50.687372 -6.258732 13.400000
26044 5 51.479910 -3.410993 13.400000
26045 5 51.896625 -4.117025 13.400000
26046 5 52.689163 -1.269287 13.400000
26047 5 53.105879 -1.975319 13.400000
26048 5 53.898417 0.872420 13.400000
26049 5 54.315132 0.166387 13.400000
26050 5 55.107670 3.014126 13.400000
26051 5 55.524385 2.308094 13.400000
26052 5 56.316923 5.155833 13.400000
26053 5 56.733638 4.449800 13.400000
26054 5 57.526176 7.297539 13.400000
26055 5 57.942891 6.591507 13.400000
26056 5 58.735429 9.439246 13.400000
26057 5 59.152145 8.733213 13.400000
26058 5 59.944683 11.580952 13.400000
26059 5 60.361398 10.874920 13.400000
26060 5 61.153936 13.722659 13.400000
26061 5 61.570651 13.016626 13.400000
26062 5 62.363189 15.864365 13.400000
26063 5 62.779904 15.158333 13.400000
26064 5 63.572442 18.006072 13.400000
26065 5 63.989157 17.300039 13.400000
26066 5 64.781695 20.147778 13.400000
26067 5 65.198411 19.441746 13.400000
26068 5 65.990949 22.289485 13.400000
26069 5 66.407664 21.583452 13.400000
26070 5 67.200202 24.431191 13.400000
26071 5 67.616917 23.725159 13.400000
26072 5 68.409455 26.572898 13.400000
26073 5 68.826170 25.866865 13.400000
26074 5 69.618708 28.714604 13.400000
26075 5 70.035423 28.008572 13.400000
26076 5 23.707979 -56.930046 13.400000
26077 5 24.124694 -57.636079 13.400000
26078 5 24.917232 -54.788340 13.400000
26079 5 25.333948 -55.494372 13.400000
26080 5 26.126486 -52.646633 13.400000
26081 5 26.543201 -53.352666 13.400000
26082 5 27.335739 -50.504927 13.400000
26083 5 27.752454 -51.210959 13.400000
26084 5 28.544992 -48.363220 13.400000
26085 5 28.961707 -49.069253 13.400000
26086 5 29.754245 -46.221514 13.400000
26087 5 30.170960 -46.927546 13.400000
26088 5 30.963498 -44.079807 13.400000
26089 5 31.380214 -44.785840 13.400000
26090 5 32.172752 -41.938101 13.400000
26091 5 32.589467 -42.644133 13.400000
26092 5 33.382005 -39.796394 13.400000
26093 5 33.798720 -40.502427 13.400000
26094 5 34.591258 -37.654688 13.400000
26095 5 35.007973 -38.360720 13.400000
26096 5 35.800511 -35.512981 13.400000
26097 5 36.217226 -36.219014 13.400000
26098 5 37.009764 -33.371275 13.400000
26099 5 37.426480 -34.077307 13.400000
26100 5 38.219018 -31.229568 13.400000
26101 5 38.635733 -31.935601 13.400000
26102 5 39.428271 -29.087862 13.400000
26103 5 39.844986 -29.793894 13.400000
26104 5 40.637524 -26.946155 13.400000
26105 5 41.054239 -27.652188 13.400000
26106 5 41.846777 -24.804449 13.400000
26107 5 42.263492 -25.510481 13.400000
26108 5 43.056030 -22.662742 13.400000
26109 5 43.472746 -23.368775 13.400000
26110 5 44.265284 -20.521036 13.400000
26111 5 44.681999 -21.227068 13.400000
26112 5 45.474537 -18.379329 13.400000
26113 5 45.891252 -19.085362 13.400000
26114 5 46.683790 -16.237623 13.400000
26115 5 47.100505 -16.943655 13.400000
26116 5 47.893043 -14.095916 13.400000
26117 5 48.309758 -14.801949 13.400000
26118 5 49.102296 -11.954210 13.400000
26119 5 49.519012 -12.660242 13.400000
26120 5 50.311549 -9.812503 13.400000
26121 5 50.728265 -10.518536 13.400000
26122 5 51.520803 -7.670797 13.400000
26123 5 51.937518 -8.376829 13.400000
26124 5 52.730056 -5.529090 13.400000
26125 5 53.146771 -6.235123 13.400000
26126 5 53.939309 -3.387384 13.400000
26127 5 54.356024 -4.093416 13.400000
26128 5 55.148562 -1.245677 13.400000
26129 5 55.565277 -1.951710 13.400000
26130 5 56.357815 0.896029 13.400000
26131 5 56.774531 0.189997 13.400000
26132 5 57.567069 3.037736 13.400000
26133 5 57.983784 2.331703 13.400000
26134 5 58.776322 5.179442 13.400000
26135 5 59.193037 4.473410 13.400000
26136 5 59.985575 7.321149 13.400000
26137 5 60.402290 6.615116 13.400000
26138 5 61.194828 9.462855 13.400000
26139 5 61.611543 8.756823 13.400000
26140 5 62.404081 11.604562 13.400000
26141 5 62.820797 10.898529 13.400000
26142 5 63.613335 13.746268 13.400000
26143 5 64.030050 13.040236 13.400000
26144 5 64.822588 15.887975 13.400000
26145 5 65.239303 15.181942 13.400000
26146 5 66.031841 18.029681 13.400000
26147 5 66.448556 17.323649 13.400000
26148 5 67.241094 20.171388 13.400000
26149 5 67.657809 19.465355 13.400000
26150 5 68.450347 22.313094 13.400000
26151 5 68.867063 21.607062 13.400000
26152 5 69.659601 24.454801 13.400000
26153 5 70.076316 23.748768 13.400000
26154 5 70.868854 26.596507 13.400000
26155 5 71.285569 25.890475 13.400000
26156 5 26.167378 -56.906437 13.400000
26157 5 26.584093 -57.612469 13.400000
26158 5 27.376631 -54.764730 13.400000
26159 5 27.793346 -55.470763 13.400000
26160 5 28.585884 -52.623024 13.400000
26161 5 29.002600 -53.329056 13.400000
26162 5 29.795138 -50.481317 13.400000
26163 5 30.211853 -51.187350 13.400000
26164 5 31.004391 -48.339611 13.400000
26165 5 31.421106 -49.045643 13.400000
26166 5 32.213644 -46.197904 13.400000
26167 5 32.630359 -46.903937 13.400000
26168 5 33.422897 -44.056198 13.400000
26169 5 33.839612 -44.762230 13.400000
26170 5 34.632150 -41.914491 13.400000
26171 5 35.048866 -42.620524 13.400000
26172 5 35.841404 -39.772785 13.400000
26173 5 36.258119 -40.478817 13.400000
26174 5 37.050657 -37.631078 13.400000
26175 5 37.467372 -38.337111 13.400000
26176 5 38.259910 -35.489372 13.400000
26177 5 38.676625 -36.195404 13.400000
26178 5 39.469163 -33.347665 13.400000
26179 5 39.885878 -34.053698 13.400000
26180 5 40.678416 -31.205959 13.400000
26181 5 41.095132 -31.911991 13.400000
26182 5 41.887670 -29.064252 13.400000
26183 5 42.304385 -29.770285 13.400000
26184 5 43.096923 -26.922546 13.400000
26185 5 43.513638 -27.628578 13.400000
26186 5 44.306176 -24.780840 13.400000
26187 5 44.722891 -25.486872 13.400000
26188 5 45.515429 -22.639133 13.400000
26189 5 45.932144 -23.345165 13.400000
26190 5 46.724682 -20.497427 13.400000
26191 5 47.141398 -21.203459 13.400000
26192 5 47.933936 -18.355720 13.400000
26193 5 48.350651 -19.061752 13.400000
26194 5 49.143189 -16.214014 13.400000
26195 5 49.559904 -16.920046 13.400000
26196 5 50.352442 -14.072307 13.400000
26197 5 50.769157 -14.778339 13.400000
26198 5 51.561695 -11.930601 13.400000
26199 5 51.978410 -12.636633 13.400000
26200 5 52.770948 -9.788894 13.400000
26201 5 53.187664 -10.494926 13.400000
26202 5 53.980202 -7.647188 13.400000
26203 5 54.396917 -8.353220 13.400000
26204 5 55.189455 -5.505481 13.400000
26205 5 55.606170 -6.211513 13.400000
26206 5 56.398708 -3.363775 13.400000
26207 5 56.815423 -4.069807 13.400000
26208 5 57.607961 -1.222068 13.400000
26209 5 58.024676 -1.928100 13.400000
26210 5 58.817214 0.919638 13.400000
26211 5 59.233930 0.213606 13.400000
26212 5 60.026468 3.061345 13.400000
26213 5 60.443183 2.355313 13.400000
26214 5 61.235721 5.203051 13.400000
26215 5 61.652436 4.497019 13.400000
26216 5 62.444974 7.344758 13.400000
26217 5 62.861689 6.638725 13.400000
26218 5 63.654227 9.486464 13.400000
26219 5 64.070942 8.780432 13.400000
26220 5 64.863480 11.628171 13.400000
26221 5 65.280195 10.922138 13.400000
26222 5 66.072733 13.769877 13.400000
26223 5 66.489449 13.063845 13.400000
26224 5 67.281987 15.911584 13.400000
26225 5 67.698702 15.205551 13.400000
26226 5 68.491240 18.053290 13.400000
26227 5 68.907955 17.347258 13.400000
26228 5 69.700493 20.194997 13.400000
26229 5 70.117208 19.488964 13.400000
26230 5 70.909746 22.336703 13.400000
26231 5 71.326461 21.630671 13.400000
26232 5 72.118999 24.478410 13.400000
26233 5 72.535715 23.772377 13.400000
26234 5 28.626777 -56.882828 13.400000
26235 5 29.043492 -57.588860 13.400000
26236 5 29.836030 -54.741121 13.400000
26237 5 30.252745 -55.447154 13.400000
26238 5 31.045283 -52.599415 13.400000
26239 5 31.461998 -53.305447 13.400000
26240 5 32.254536 -50.457708 13.400000
26241 5 32.671252 -51.163741 13.400000
26242 5 33.463790 -48.316002 13.400000
26243 5 33.880505 -49.022034 13.400000
26244 5 34.673043 -46.174295 13.400000
26245 5 35.089758 -46.880328 13.400000
26246 5 35.882296 -44.032589 13.400000
26247 5 36.299011 -44.738621 13.400000
26248 5 37.091549 -41.890882 13.400000
26249 5 37.508264 -42.596915 13.400000
26250 5 38.300802 -39.749176 13.400000
26251 5 38.717518 -40.455208 13.400000
26252 5 39.510056 -37.607469 13.400000
26253 5 39.926771 -38.313502 13.400000
26254 5 40.719309 -35.465763 13.400000
26255 5 41.136024 -36.171795 13.400000
26256 5 41.928562 -33.324056 13.400000
26257 5 42.345277 -34.030089 13.400000
26258 5 43.137815 -31.182350 13.400000
26259 5 43.554530 -31.888382 13.400000
26260 5 44.347068 -29.040643 13.400000
26261 5 44.763784 -29.746676 13.400000
26262 5 45.556322 -26.898937 13.400000
26263 5 45.973037 -27.604969 13.400000
26264 5 46.765575 -24.757230 13.400000
26265 5 47.182290 -25.463263 13.400000
26266 5 47.974828 -22.615524 13.400000
26267 5 48.391543 -23.321556 13.400000
26268 5 49.184081 -20.473817 13.400000
26269 5 49.600796 -21.179850 13.400000
26270 5 50.393334 -18.332111 13.400000
26271 5 50.810050 -19.038143 13.400000
26272 5 51.602588 -16.190404 13.400000
26273 5 52.019303 -16.896437 13.400000
26274 5 52.811841 -14.048698 13.400000
26275 5 53.228556 -14.754730 13.400000
26276 5 54.021094 -11.906991 13.400000
26277 5 54.437809 -12.613024 13.400000
26278 5 55.230347 -9.765285 13.400000
26279 5 55.647062 -10.471317 13.400000
26280 5 56.439600 -7.623578 13.400000
26281 5 56.856316 -8.329611 13.400000
26282 5 57.648854 -5.481872 13.400000
26283 5 58.065569 -6.187904 13.400000
26284 5 58.858107 -3.340165 13.400000
26285 5 59.274822 -4.046198 13.400000
26286 5 60.067360 -1.198459 13.400000
26287 5 60.484075 -1.904491 13.400000
26288 5 61.276613 0.943248 13.400000
26289 5 61.693328 0.237215 13.400000
26290 5 62.485866 3.084954 13.400000
26291 5 62.902582 2.378922 13.400000
26292 5 63.695120 5.226661 13.400000
26293 5 64.111835 4.520628 13.400000
26294 5 64.904373 7.368367 13.400000
26295 5 65.321088 6.662335 13.400000
26296 5 66.113626 9.510074 13.400000
26297 5 66.530341 8.804041 13.400000
26298 5 67.322879 11.651780 13.400000
26299 5 67.739594 10.945748 13.400000
26300 5 68.532132 13.793487 13.400000
26301 5 68.948848 13.087454 13.400000
26302 5 69.741386 15.935193 13.400000
26303 5 70.158101 15.229161 13.400000
26304 5 70.950639 18.076900 13.400000
26305 5 71.367354 17.370867 13.400000
26306 5 72.159892 20.218606 13.400000
26307 5 72.576607 19.512574 13.400000
26308 5 73.369145 22.360313 13.400000
26309 5 31.086176 -56.859218 13.400000
26310 5 31.502891 -57.565251 13.400000
26311 5 32.295429 -54.717512 13.400000
26312 5 32.712144 -55.423544 13.400000
26313 5 33.504682 -52.575805 13.400000
26314 5 33.921397 -53.281838 13.400000
26315 5 34.713935 -50.434099 13.400000
26316 5 35.130650 -51.140131 13.400000
26317 5 35.923188 -48.292392 13.400000
26318 5 36.339904 -48.998425 13.400000
26319 5 37.132442 -46.150686 13.400000
26320 5 37.549157 -46.856718 13.400000
26321 5 38.341695 -44.008979 13.400000
26322 5 38.758410 -44.715012 13.400000
26323 5 39.550948 -41.867273 13.400000
26324 5 39.967663 -42.573305 13.400000
26325 5 40.760201 -39.725566 13.400000
26326 5 41.176916 -40.431599 13.400000
26327 5 41.969454 -37.583860 13.400000
26328 5 42.386170 -38.289892 13.400000
26329 5 43.178708 -35.442153 13.400000
26330 5 43.595423 -36.148186 13.400000
26331 5 44.387961 -33.300447 13.400000
26332 5 44.804676 -34.006479 13.400000
26333 5 45.597214 -31.158740 13.400000
26334 5 46.013929 -31.864773 13.400000
26335 5 46.806467 -29.017034 13.400000
26336 5 47.223182 -29.723066 13.400000
26337 5 48.015720 -26.875327 13.400000
26338 5 48.432436 -27.581360 13.400000
26339 5 49.224974 -24.733621 13.400000
26340 5 49.641689 -25.439653 13.400000
26341 5 50.434227 -22.591914 13.400000
26342 5 50.850942 -23.297947 13.400000
26343 5 51.643480 -20.450208 13.400000
26344 5 52.060195 -21.156240 13.400000
26345 5 52.852733 -18.308502 13.400000
26346 5 53.269448 -19.014534 13.400000
26347 5 54.061986 -16.166795 13.400000
26348 5 54.478702 -16.872827 13.400000
26349 5 55.271240 -14.025089 13.400000
26350 5 55.687955 -14.731121 13.400000
26351 5 56.480493 -11.883382 13.400000
26352 5 56.897208 -12.589414 13.400000
26353 5 57.689746 -9.741676 13.400000
26354 5 58.106461 -10.447708 13.400000
26355 5 58.898999 -7.599969 13.400000
26356 5 59.315714 -8.306001 13.400000
26357 5 60.108252 -5.458263 13.400000
26358 5 60.524968 -6.164295 13.400000
26359 5 61.317506 -3.316556 13.400000
26360 5 61.734221 -4.022588 13.400000
26361 5 62.526759 -1.174850 13.400000
26362 5 62.943474 -1.880882 13.400000
26363 5 63.736012 0.966857 13.400000
26364 5 64.152727 0.260825 13.400000
26365 5 64.945265 3.108563 13.400000
26366 5 65.361980 2.402531 13.400000
26367 5 66.154518 5.250270 13.400000
26368 5 66.571234 4.544238 13.400000
26369 5 67.363772 7.391976 13.400000
26370 5 67.780487 6.685944 13.400000
26371 5 68.573025 9.533683 13.400000
26372 5 68.989740 8.827651 13.400000
26373 5 69.782278 11.675389 13.400000
26374 5 70.198993 10.969357 13.400000
26375 5 70.991531 13.817096 13.400000
26376 5 71.408246 13.111063 13.400000
26377 5 72.200784 15.958802 13.400000
26378 5 72.617500 15.252770 13.400000
26379 5 73.410038 18.100509 13.400000
26380 5 73.826753 17.394476 13.400000
26381 5 33.545574 -56.835609 13.400000
26382 5 33.962290 -57.541642 13.400000
26383 5 34.754828 -54.693903 13.400000
26384 5 35.171543 -55.399935 13.400000
26385 5 35.964081 -52.552196 13.400000
26386 5 36.380796 -53.258229 13.400000
26387 5 37.173334 -50.410490 13.400000
26388 5 37.590049 -51.116522 13.400000
26389 5 38.382587 -48.268783 13.400000
26390 5 38.799302 -48.974816 13.400000
26391 5 39.591840 -46.127077 13.400000
26392 5 40.008556 -46.833109 13.400000
26393 5 40.801094 -43.985370 13.400000
26394 5 41.217809 -44.691403 13.400000
26395 5 42.010347 -41.843664 13.400000
26396 5 42.427062 -42.549696 13.400000
26397 5 43.219600 -39.701957 13.400000
26398 5 43.636315 -40.407990 13.400000
26399 5 44.428853 -37.560251 13.400000
26400 5 44.845568 -38.266283 13.400000
26401 5 45.638106 -35.418544 13.400000
26402 5 46.054822 -36.124577 13.400000
26403 5 46.847360 -33.276838 13.400000
26404 5 47.264075 -33.982870 13.400000
26405 5 48.056613 -31.135131 13.400000
26406 5 48.473328 -31.841164 13.400000
26407 5 49.265866 -28.993425 13.400000
26408 5 49.682581 -29.699457 13.400000
26409 5 50.475119 -26.851718 13.400000
26410 5 50.891834 -27.557751 13.400000
26411 5 51.684372 -24.710012 13.400000
26412 5 52.101088 -25.416044 13.400000
26413 5 52.893626 -22.568305 13.400000
26414 5 53.310341 -23.274338 13.400000
26415 5 54.102879 -20.426599 13.400000
26416 5 54.519594 -21.132631 13.400000
26417 5 55.312132 -18.284892 13.400000
26418 5 55.728847 -18.990925 13.400000
26419 5 56.521385 -16.143186 13.400000
26420 5 56.938100 -16.849218 13.400000
26421 5 57.730638 -14.001479 13.400000
26422 5 58.147354 -14.707512 13.400000
26423 5 58.939892 -11.859773 13.400000
26424 5 59.356607 -12.565805 13.400000
26425 5 60.149145 -9.718066 13.400000
26426 5 60.565860 -10.424099 13.400000
26427 5 61.358398 -7.576360 13.400000
26428 5 61.775113 -8.282392 13.400000
26429 5 62.567651 -5.434653 13.400000
26430 5 62.984366 -6.140686 13.400000
26431 5 63.776904 -3.292947 13.400000
26432 5 64.193620 -3.998979 13.400000
26433 5 64.986158 -1.151240 13.400000
26434 5 65.402873 -1.857273 13.400000
26435 5 66.195411 0.990466 13.400000
26436 5 66.612126 0.284434 13.400000
26437 5 67.404664 3.132173 13.400000
26438 5 67.821379 2.426140 13.400000
26439 5 68.613917 5.273879 13.400000
26440 5 69.030632 4.567847 13.400000
26441 5 69.823170 7.415586 13.400000
26442 5 70.239886 6.709553 13.400000
26443 5 71.032424 9.557292 13.400000
26444 5 71.449139 8.851260 13.400000
26445 5 72.241677 11.698999 13.400000
26446 5 72.658392 10.992966 13.400000
26447 5 73.450930 13.840705 13.400000
26448 5 73.867645 13.134673 13.400000
26449 5 74.660183 15.982412 13.400000
26450 5 75.076898 15.276379 13.400000
